Si_opted_init                           
   1.00000000000000     
    21.7747993469000001    0.0000000000000000    0.0000000000000000
     0.0000000000000000   21.7747993469000001    0.0000000000000000
     0.0000000000000000    0.0000000000000000   34.5285987853999998
   Si
   256
Direct
  0.1874999754616249  0.1874999398888341  0.1446928235750127
  0.1875000269514559  0.1875000086280925  0.3026368096524959
 -0.0000000323084861  0.1249999557831317  0.1838415969237590
 -0.0000000010903412  0.1249999925881589  0.3421161199879320
  0.1875000025685867  0.0625000037255236  0.2234245751390778
  0.1874999835611469  0.0624999888959857  0.3817129696573383
 -0.0000000075744028 -0.0000000152839447  0.2628598688714707
 -0.0000000040266526  0.0000000028759930  0.4208052762327879
  0.0624999818086723  0.1874999796938109  0.2234245453000811
  0.0624999582239090  0.1875000014115380  0.3817129748709158
  0.1249999980180947  0.1249999977152091  0.2628598760614814
  0.1250000131983339  0.1250000176222053  0.4208052663143582
  0.0625000573928126  0.0625000628354085  0.1446927900431522
  0.0624999917258870  0.0624999975541823  0.3026368239039989
  0.1249999661117845 -0.0000000238668646  0.1838415836360228
  0.1249999879669810 -0.0000000145207651  0.3421161179096693
  0.4374999082438459  0.1874999035370389  0.1446927792567420
  0.4375000058955582  0.1875000142069472  0.3026368163979685
  0.2499999802064124  0.1249999818835629  0.1838415606727401
  0.2499999695672314  0.1250000028514743  0.3421161228189027
  0.4374999840822621  0.0624999687350742  0.2234245429035997
  0.4375000069888635  0.0624999874314088  0.3817129892026212
  0.2499999995055574 -0.0000000005861101  0.2628598754320171
  0.2500000075060992  0.0000000063244853  0.4208052726109157
  0.3125000241152445  0.1874999373078557  0.2234245680099924
  0.3124999763295210  0.1875000126486002  0.3817129844850554
  0.3749999781202949  0.1250000104552905  0.2628598834942010
  0.3750000020239678  0.1250000012091681  0.4208052576596191
  0.3125000688602867  0.0625000693356022  0.1446927978038044
  0.3125000009050853  0.0624999958208503  0.3026368136164039
  0.3749999460302237 -0.0000000261725041  0.1838415817184828
  0.3749999876231621 -0.0000000080861866  0.3421161307534947
  0.6875012323370654  0.1874989907308298  0.1446921140074646
  0.6874999863799764  0.1875000019619581  0.3026368102141842
  0.4999999620412446  0.1249999683933289  0.1838416027680627
  0.5000000036537342  0.1250000031874608  0.3421161178697851
  0.6875000016348920  0.0625000282741119  0.2234245623759401
  0.6875000173654140  0.0625000166568540  0.3817129697451350
  0.4999999987951375 -0.0000000008722740  0.2628598798456320
  0.4999999895611504 -0.0000000190447248  0.4208052767462347
  0.5624988495713238  0.1874988941161811  0.2234252838536782
  0.5625000108814971  0.1875000120117226  0.3817129727518876
  0.6249999622649872  0.1249998881599530  0.2628599214586990
  0.6249999922066110  0.1249999829548560  0.4208052611135135
  0.5624999250822285  0.0624999650162206  0.1446928113992829
  0.5625000127495309  0.0625000011449307  0.3026368189442696
  0.6250000352173275  0.0000000049561368  0.1838415613202357
  0.6250000126374003 -0.0000000139718624  0.3421161274005234
  0.9375000394411463  0.1875000387468487  0.1446927806788544
  0.9374999906932990  0.1875000068338428  0.3026368179129742
  0.7500000099099986  0.1249998902354238  0.1838415526538009
  0.7500000064048287  0.1250000047658748  0.3421161251057164
  0.9374999968173664  0.0625000108671833  0.2234245630084834
  0.9374999787458828  0.0624999952974611  0.3817129613960613
  0.7500000052890027 -0.0000000279064231  0.2628598903348038
  0.7499999803322641 -0.0000000494682927  0.4208052923487897
  0.8124999492191448  0.1875000204659802  0.2234245759873682
  0.8124999858130197  0.1875000071005390  0.3817129535887191
  0.8750000078641551  0.1249999720590465  0.2628598701225283
  0.8750000119028014  0.1250000099300364  0.4208052700045559
  0.8124999323996251  0.0624999900792763  0.1446928287074716
  0.8124999876869822  0.0624999958790880  0.3026368174770092
  0.8750000439452694  0.0000000093645999  0.1838415643620747
  0.8750000138940930 -0.0000000112678655  0.3421161157443035
  0.1874989829014450  0.4375012334441672  0.1446921153337297
  0.1875000018234132  0.4374999857194410  0.3026367976591945
 -0.0000000361104419  0.3749999831186454  0.1838415670325940
 -0.0000000152117104  0.3749999881060969  0.3421161227222917
  0.1874989105737977  0.3124988437204992  0.2234252693598480
  0.1874999829181641  0.3125000038219575  0.3817129798970215
 -0.0000000045524066  0.2500000036756530  0.2628598725815082
 -0.0000000054010581  0.2500000059784594  0.4208052869946493
  0.0625000217952154  0.4375000064936275  0.2234245520061648
  0.0624999856071521  0.4375000137484790  0.3817129794708748
  0.1249998945338963  0.3749999638582765  0.2628599336955507
  0.1249999905405265  0.3749999895622732  0.4208052625091468
  0.0624999888321156  0.3124999805650979  0.1446928238556601
  0.0624999949083936  0.3125000143476278  0.3026368191472346
  0.1249999037221789  0.2499999522474204  0.1838415820531319
  0.1249999875379271  0.2499999948154481  0.3421161215153810
  0.4374998982872916  0.4374999381245696  0.1446927057402815
  0.4374999867233894  0.4375000090254667  0.3026368235693297
  0.2499958081949706  0.3750001396364564  0.1838415675094604
  0.2499999973754401  0.3749999856592207  0.3421161265234088
  0.4374999623103696  0.3125000351243460  0.2234245874900259
  0.4375000159289226  0.3125000126246870  0.3817129772457473
  0.2499999730159359  0.2500000347178311  0.2628598814233131
  0.2499999919972572  0.2499999918560861  0.4208052830189418
  0.3124989079159278  0.4374988426691945  0.2234238776696563
  0.3125000074983759  0.4375000198928600  0.3817129758320940
  0.3749999013238790  0.3749999438486784  0.2628598235388518
  0.3749999857677965  0.3749999801911099  0.4208052716763939
  0.3124990074281530  0.3125012607696872  0.1446934699509199
  0.3125000039412842  0.3124999829838151  0.3026368251676891
  0.3749998909569985  0.2500000253460978  0.1838415926171846
  0.3750000013400009  0.2499999857022076  0.3421161169157192
  0.6874999660317079  0.4374999742201383  0.1446927463106285
  0.6875000171758063  0.4374999926888264  0.3026368192899018
  0.4999999855789928  0.3749999148675555  0.1838416222623714
  0.5000000040672730  0.3750000018152371  0.3421161110871633
  0.6874988489700274  0.3124989095855014  0.2234238770458157
  0.6875000056606034  0.3124999888592244  0.3817129558686952
  0.5000000111802044  0.2499999744941249  0.2628598584051657
  0.4999999837901062  0.2499999896150425  0.4208052813124807
  0.5625000100989586  0.4375000052144031  0.2234245964489550
  0.5625000058629810  0.4374999867347046  0.3817129562969266
  0.6249999594082574  0.3749998976816659  0.2628598185628538
  0.6250000097130035  0.3750000136415998  0.4208052829828181
  0.5625012462020168  0.3124989996346691  0.1446934522645431
  0.5624999796239638  0.3124999947615020  0.3026368289911766
  0.6250001239875020  0.2499958342620628  0.1838415833128981
  0.6250000005337158  0.2500000166038936  0.3421161158273098
  0.9375000495369806  0.4375000436301693  0.1446927798702077
  0.9374999946623759  0.4374999990652117  0.3026368177028985
  0.7499999234012746  0.3749999124132879  0.1838415724595578
  0.7499999981565065  0.3750000002445106  0.3421161191559315
  0.9374999927517471  0.3125000010802216  0.2234245709038005
  0.9374999694780415  0.3124999826379046  0.3817129725554662
  0.7500000235004345  0.2499999760738767  0.2628598709921399
  0.7499999960348456  0.2500000016655760  0.4208052921851065
  0.8124999891118401  0.4374999675849885  0.2234246041718340
  0.8124999793775283  0.4374999762990386  0.3817129644336265
  0.8750000023566125  0.3750000038735156  0.2628598726253067
  0.8750000227028091  0.3750000250728902  0.4208052799940519
  0.8124999549768663  0.3124999953171972  0.1446927597117774
  0.8125000017935724  0.3125000186722205  0.3026368243721952
  0.8749999860806486  0.2499999893393947  0.1838415892579004
  0.8750000061480415  0.2499999744954698  0.3421161224851097
  0.1874999971624388  0.6874999819508544  0.1446927826577457
  0.1875000038135933  0.6874999709137942  0.3026368178452611
  0.0000000113143031  0.6250000406696941  0.1838415343983854
 -0.0000000142679150  0.6250000018407842  0.3421161343674434
  0.1875000221183517  0.5624999346889464  0.2234245699570924
  0.1875000143379681  0.5625000046612550  0.3817129703009882
 -0.0000000238741109  0.4999999904233724  0.2628598970595596
 -0.0000000085975495  0.4999999981381862  0.4208052923352252
  0.0625000099181716  0.6874999825710912  0.2234245639995089
  0.0625000444965826  0.6874999991602212  0.3817129771493941
  0.1249999725236147  0.6250000168967550  0.2628598799123090
  0.1249999668218981  0.6249999866488477  0.4208052715076352
  0.0624999895747000  0.5624999355956866  0.1446928539436678
  0.0625000055955852  0.5624999821417297  0.3026367966511418
  0.1249999010965455  0.4999999945284441  0.1838415317492001
  0.1249999832083228  0.4999999944869786  0.3421161318703969
  0.4375000469325926  0.6875000452950303  0.1446927691040346
  0.4374999930857512  0.6874999930780205  0.3026368236723170
  0.2500000134943797  0.6250000375023500  0.1838415920298429
  0.2499999708228682  0.6250000266011339  0.3421161228771959
  0.4374999625184481  0.5624999851578308  0.2234246195185751
  0.4374999951274438  0.5624999966558649  0.3817129557756938
  0.2499999655769068  0.5000000197803010  0.2628598741334869
  0.2499999828855834  0.4999999853649360  0.4208052757650168
  0.3125000120572742  0.6874999887920232  0.2234245868442502
  0.3125000258245572  0.6874999747053377  0.3817129600426321
  0.3749999941162786  0.6250000068957546  0.2628598614311672
  0.3750000008568160  0.6250000121139383  0.4208052854162020
  0.3124999662598115  0.5624998973973220  0.1446927515646819
  0.3125000332067291  0.5625000016307814  0.3026368279637666
  0.3749999608355071  0.4999999661940663  0.1838415930557750
  0.3750000034095469  0.5000000116955683  0.3421161189512282
  0.6874999949023843  0.6875000003734509  0.1446927924266046
  0.6875000013840926  0.6874999978594558  0.3026368108876546
  0.4999999638823435  0.6249999623444769  0.1838415737094821
  0.5000000014476328  0.6250000033598624  0.3421161132418586
  0.6874999863761854  0.5624999885738985  0.2234245786910303
  0.6874999714760172  0.5624999776449531  0.3817129638223824
  0.4999999918759650  0.4999999835775204  0.2628598516080008
  0.4999999972849065  0.4999999933294219  0.4208052793961584
  0.5624999982780704  0.6874999929788375  0.2234245786095052
  0.5624999783282582  0.6874999540758266  0.3817129617312079
  0.6250000051178765  0.6249999995734676  0.2628598768296548
  0.6250000371080655  0.6250000230128059  0.4208052904318224
  0.5625000379579459  0.5625000331807912  0.1446927863785068
  0.5624999922235212  0.5624999944488935  0.3026368226126244
  0.6249999870974225  0.4999999718137919  0.1838415931527724
  0.6249999971470876  0.4999999960521075  0.3421161130312614
  0.9374999530947503  0.6874999717887886  0.1446928021311073
  0.9374999955418383  0.6875000114074203  0.3026368042307027
  0.7499999829246994  0.6249999714954743  0.1838415650036827
  0.7499999859021640  0.6249999932075730  0.3421161194069197
  0.9374999909544591  0.5624999942526411  0.2234245643294107
  0.9374999746639249  0.5624999795197846  0.3817129739687709
  0.7499999980741781  0.4999999982433267  0.2628598737236560
  0.7500000026530412  0.4999999993009446  0.4208052900848341
  0.8124999889275408  0.6875000025553841  0.2234245600978990
  0.8124999952750902  0.6874999923731198  0.3817129818975855
  0.8750000061634984  0.6249999982896612  0.2628598889220040
  0.8750000052265187  0.6249999983640617  0.4208052882990198
  0.8125000348574044  0.5625000402428019  0.1446928056840751
  0.8125000010864959  0.5624999904696752  0.3026368166337444
  0.8749999702455832  0.4999999570649769  0.1838415550423164
  0.8749999963969882  0.4999999958798727  0.3421161203913083
  0.1875000039267887  0.9375000001063385  0.1446927856122404
  0.1875000066983641  0.9374999907219246  0.3026368309043829
  0.0000000192622750  0.8750000151938407  0.1838415796797232
 -0.0000000114046214  0.8750000071027618  0.3421161160558150
  0.1874999938159904  0.8124999963583127  0.2234245839677493
  0.1875000212313279  0.8124999917015360  0.3817129531144916
 -0.0000000196800517  0.7499999963374713  0.2628598780214157
 -0.0000000469909187  0.7499999740661398  0.4208052687312425
  0.0625000072748311  0.9374999929058763  0.2234245839586205
  0.0625000160126815  0.9374999882418347  0.3817129581240941
  0.1249999901801534  0.8749999999872305  0.2628598653551218
  0.1249999832339711  0.8750000043351138  0.4208052922408919
  0.0624999995653417  0.8124999768336267  0.1446927846624816
  0.0625000046365936  0.8124999756594786  0.3026368243830789
  0.1250000051299673  0.7499999980691887  0.1838415821051634
  0.1249999838700599  0.7500000128643750  0.3421161158129759
  0.4375000218177680  0.9375000221160428  0.1446928008550789
  0.4375000009650154  0.9374999878388161  0.3026368081705035
  0.2499999981134911  0.8749999791183171  0.1838415927968703
  0.2499999850939763  0.8750000020478097  0.3421161111380378
  0.4374999878798998  0.8124999994501348  0.2234245701742026
  0.4374999952546449  0.8124999747432833  0.3817129665182837
  0.2499999889358560  0.7500000040342419  0.2628598626070578
  0.2499999681146576  0.7499999914863796  0.4208052783196934
  0.3124999935194891  0.9374999988824576  0.2234245663626865
  0.3124999781274742  0.9374999576003357  0.3817129718832843
  0.3749999956688752  0.8749999994869332  0.2628598764021225
  0.3750000168155804  0.8750000248729323  0.4208052721504281
  0.3125000093256434  0.8125000023064356  0.1446927793889385
  0.3125000015715654  0.8125000064506138  0.3026368268939499
  0.3749999661175091  0.7499999758502671  0.1838415931605172
  0.3750000007710457  0.7499999923273933  0.3421161188467824
  0.6874999672077529  0.9374999837181732  0.1446928070001735
  0.6874999734883801  0.9375000031297979  0.3026368141574063
  0.4999999858858837  0.8749999664939526  0.1838415641425840
  0.4999999846608109  0.8749999859400425  0.3421161301912994
  0.6874999737818916  0.8125000023168237  0.2234245626423136
  0.6874999877203005  0.8125000165900518  0.3817129905146938
  0.5000000015758658  0.7499999938495590  0.2628598754411380
  0.5000000117076484  0.7500000051531759  0.4208052819418007
  0.5624999798993705  0.9374999895187104  0.2234245588042990
  0.5624999864432155  0.9374999943595249  0.3817129854981703
  0.6250000097445132  0.8749999914601264  0.2628598868563231
  0.6250000133219193  0.8749999899343834  0.4208052644201080
  0.5625000112935477  0.8125000128421976  0.1446927953192962
  0.5624999901242418  0.8125000110216271  0.3026368018878297
  0.6249999874031039  0.7499999701142241  0.1838415612559719
  0.6250000044192522  0.7499999777556241  0.3421161314747627
  0.9374999818104983  0.9374999521218528  0.1446927984427560
  0.9374999949525237  0.9375000068256983  0.3026368270542567
  0.7500000196714729  0.8749999929963971  0.1838415620795274
  0.7500000199000725  0.8749999850127351  0.3421161278028900
  0.9374999871402524  0.8125000021371156  0.2234245667881911
  0.9375000041176798  0.8125000205150174  0.3817129706549390
  0.7500000126743789  0.7499999840977329  0.2628598826954304
  0.7499999873212351  0.7499999565571254  0.4208052713777681
  0.8124999808172321  0.9375000021121440  0.2234245612619533
  0.8125000040348989  0.9375000333081656  0.3817129619348715
  0.8750000040761653  0.8749999908994874  0.2628598797385222
  0.8749999823489245  0.8749999774788594  0.4208052907172277
  0.8124999844147567  0.8124999914104002  0.1446928005698870
  0.8124999721066675  0.8125000105891427  0.3026368122256939
  0.8750000388340755  0.7499999969325600  0.1838415582018578
  0.8750000170060049  0.7499999802296881  0.3421161212159956
 
  0.00000000E+00  0.00000000E+00  0.00000000E+00
  0.00000000E+00  0.00000000E+00  0.00000000E+00
  0.00000000E+00  0.00000000E+00  0.00000000E+00
  0.00000000E+00  0.00000000E+00  0.00000000E+00
  0.00000000E+00  0.00000000E+00  0.00000000E+00
  0.00000000E+00  0.00000000E+00  0.00000000E+00
  0.00000000E+00  0.00000000E+00  0.00000000E+00
  0.00000000E+00  0.00000000E+00  0.00000000E+00
  0.00000000E+00  0.00000000E+00  0.00000000E+00
  0.00000000E+00  0.00000000E+00  0.00000000E+00
  0.00000000E+00  0.00000000E+00  0.00000000E+00
  0.00000000E+00  0.00000000E+00  0.00000000E+00
  0.00000000E+00  0.00000000E+00  0.00000000E+00
  0.00000000E+00  0.00000000E+00  0.00000000E+00
  0.00000000E+00  0.00000000E+00  0.00000000E+00
  0.00000000E+00  0.00000000E+00  0.00000000E+00
  0.00000000E+00  0.00000000E+00  0.00000000E+00
  0.00000000E+00  0.00000000E+00  0.00000000E+00
  0.00000000E+00  0.00000000E+00  0.00000000E+00
  0.00000000E+00  0.00000000E+00  0.00000000E+00
  0.00000000E+00  0.00000000E+00  0.00000000E+00
  0.00000000E+00  0.00000000E+00  0.00000000E+00
  0.00000000E+00  0.00000000E+00  0.00000000E+00
  0.00000000E+00  0.00000000E+00  0.00000000E+00
  0.00000000E+00  0.00000000E+00  0.00000000E+00
  0.00000000E+00  0.00000000E+00  0.00000000E+00
  0.00000000E+00  0.00000000E+00  0.00000000E+00
  0.00000000E+00  0.00000000E+00  0.00000000E+00
  0.00000000E+00  0.00000000E+00  0.00000000E+00
  0.00000000E+00  0.00000000E+00  0.00000000E+00
  0.00000000E+00  0.00000000E+00  0.00000000E+00
  0.00000000E+00  0.00000000E+00  0.00000000E+00
  0.00000000E+00  0.00000000E+00  0.00000000E+00
  0.00000000E+00  0.00000000E+00  0.00000000E+00
  0.00000000E+00  0.00000000E+00  0.00000000E+00
  0.00000000E+00  0.00000000E+00  0.00000000E+00
  0.00000000E+00  0.00000000E+00  0.00000000E+00
  0.00000000E+00  0.00000000E+00  0.00000000E+00
  0.00000000E+00  0.00000000E+00  0.00000000E+00
  0.00000000E+00  0.00000000E+00  0.00000000E+00
  0.00000000E+00  0.00000000E+00  0.00000000E+00
  0.00000000E+00  0.00000000E+00  0.00000000E+00
  0.00000000E+00  0.00000000E+00  0.00000000E+00
  0.00000000E+00  0.00000000E+00  0.00000000E+00
  0.00000000E+00  0.00000000E+00  0.00000000E+00
  0.00000000E+00  0.00000000E+00  0.00000000E+00
  0.00000000E+00  0.00000000E+00  0.00000000E+00
  0.00000000E+00  0.00000000E+00  0.00000000E+00
  0.00000000E+00  0.00000000E+00  0.00000000E+00
  0.00000000E+00  0.00000000E+00  0.00000000E+00
  0.00000000E+00  0.00000000E+00  0.00000000E+00
  0.00000000E+00  0.00000000E+00  0.00000000E+00
  0.00000000E+00  0.00000000E+00  0.00000000E+00
  0.00000000E+00  0.00000000E+00  0.00000000E+00
  0.00000000E+00  0.00000000E+00  0.00000000E+00
  0.00000000E+00  0.00000000E+00  0.00000000E+00
  0.00000000E+00  0.00000000E+00  0.00000000E+00
  0.00000000E+00  0.00000000E+00  0.00000000E+00
  0.00000000E+00  0.00000000E+00  0.00000000E+00
  0.00000000E+00  0.00000000E+00  0.00000000E+00
  0.00000000E+00  0.00000000E+00  0.00000000E+00
  0.00000000E+00  0.00000000E+00  0.00000000E+00
  0.00000000E+00  0.00000000E+00  0.00000000E+00
  0.00000000E+00  0.00000000E+00  0.00000000E+00
  0.00000000E+00  0.00000000E+00  0.00000000E+00
  0.00000000E+00  0.00000000E+00  0.00000000E+00
  0.00000000E+00  0.00000000E+00  0.00000000E+00
  0.00000000E+00  0.00000000E+00  0.00000000E+00
  0.00000000E+00  0.00000000E+00  0.00000000E+00
  0.00000000E+00  0.00000000E+00  0.00000000E+00
  0.00000000E+00  0.00000000E+00  0.00000000E+00
  0.00000000E+00  0.00000000E+00  0.00000000E+00
  0.00000000E+00  0.00000000E+00  0.00000000E+00
  0.00000000E+00  0.00000000E+00  0.00000000E+00
  0.00000000E+00  0.00000000E+00  0.00000000E+00
  0.00000000E+00  0.00000000E+00  0.00000000E+00
  0.00000000E+00  0.00000000E+00  0.00000000E+00
  0.00000000E+00  0.00000000E+00  0.00000000E+00
  0.00000000E+00  0.00000000E+00  0.00000000E+00
  0.00000000E+00  0.00000000E+00  0.00000000E+00
  0.00000000E+00  0.00000000E+00  0.00000000E+00
  0.00000000E+00  0.00000000E+00  0.00000000E+00
  0.00000000E+00  0.00000000E+00  0.00000000E+00
  0.00000000E+00  0.00000000E+00  0.00000000E+00
  0.00000000E+00  0.00000000E+00  0.00000000E+00
  0.00000000E+00  0.00000000E+00  0.00000000E+00
  0.00000000E+00  0.00000000E+00  0.00000000E+00
  0.00000000E+00  0.00000000E+00  0.00000000E+00
  0.00000000E+00  0.00000000E+00  0.00000000E+00
  0.00000000E+00  0.00000000E+00  0.00000000E+00
  0.00000000E+00  0.00000000E+00  0.00000000E+00
  0.00000000E+00  0.00000000E+00  0.00000000E+00
  0.00000000E+00  0.00000000E+00  0.00000000E+00
  0.00000000E+00  0.00000000E+00  0.00000000E+00
  0.00000000E+00  0.00000000E+00  0.00000000E+00
  0.00000000E+00  0.00000000E+00  0.00000000E+00
  0.00000000E+00  0.00000000E+00  0.00000000E+00
  0.00000000E+00  0.00000000E+00  0.00000000E+00
  0.00000000E+00  0.00000000E+00  0.00000000E+00
  0.00000000E+00  0.00000000E+00  0.00000000E+00
  0.00000000E+00  0.00000000E+00  0.00000000E+00
  0.00000000E+00  0.00000000E+00  0.00000000E+00
  0.00000000E+00  0.00000000E+00  0.00000000E+00
  0.00000000E+00  0.00000000E+00  0.00000000E+00
  0.00000000E+00  0.00000000E+00  0.00000000E+00
  0.00000000E+00  0.00000000E+00  0.00000000E+00
  0.00000000E+00  0.00000000E+00  0.00000000E+00
  0.00000000E+00  0.00000000E+00  0.00000000E+00
  0.00000000E+00  0.00000000E+00  0.00000000E+00
  0.00000000E+00  0.00000000E+00  0.00000000E+00
  0.00000000E+00  0.00000000E+00  0.00000000E+00
  0.00000000E+00  0.00000000E+00  0.00000000E+00
  0.00000000E+00  0.00000000E+00  0.00000000E+00
  0.00000000E+00  0.00000000E+00  0.00000000E+00
  0.00000000E+00  0.00000000E+00  0.00000000E+00
  0.00000000E+00  0.00000000E+00  0.00000000E+00
  0.00000000E+00  0.00000000E+00  0.00000000E+00
  0.00000000E+00  0.00000000E+00  0.00000000E+00
  0.00000000E+00  0.00000000E+00  0.00000000E+00
  0.00000000E+00  0.00000000E+00  0.00000000E+00
  0.00000000E+00  0.00000000E+00  0.00000000E+00
  0.00000000E+00  0.00000000E+00  0.00000000E+00
  0.00000000E+00  0.00000000E+00  0.00000000E+00
  0.00000000E+00  0.00000000E+00  0.00000000E+00
  0.00000000E+00  0.00000000E+00  0.00000000E+00
  0.00000000E+00  0.00000000E+00  0.00000000E+00
  0.00000000E+00  0.00000000E+00  0.00000000E+00
  0.00000000E+00  0.00000000E+00  0.00000000E+00
  0.00000000E+00  0.00000000E+00  0.00000000E+00
  0.00000000E+00  0.00000000E+00  0.00000000E+00
  0.00000000E+00  0.00000000E+00  0.00000000E+00
  0.00000000E+00  0.00000000E+00  0.00000000E+00
  0.00000000E+00  0.00000000E+00  0.00000000E+00
  0.00000000E+00  0.00000000E+00  0.00000000E+00
  0.00000000E+00  0.00000000E+00  0.00000000E+00
  0.00000000E+00  0.00000000E+00  0.00000000E+00
  0.00000000E+00  0.00000000E+00  0.00000000E+00
  0.00000000E+00  0.00000000E+00  0.00000000E+00
  0.00000000E+00  0.00000000E+00  0.00000000E+00
  0.00000000E+00  0.00000000E+00  0.00000000E+00
  0.00000000E+00  0.00000000E+00  0.00000000E+00
  0.00000000E+00  0.00000000E+00  0.00000000E+00
  0.00000000E+00  0.00000000E+00  0.00000000E+00
  0.00000000E+00  0.00000000E+00  0.00000000E+00
  0.00000000E+00  0.00000000E+00  0.00000000E+00
  0.00000000E+00  0.00000000E+00  0.00000000E+00
  0.00000000E+00  0.00000000E+00  0.00000000E+00
  0.00000000E+00  0.00000000E+00  0.00000000E+00
  0.00000000E+00  0.00000000E+00  0.00000000E+00
  0.00000000E+00  0.00000000E+00  0.00000000E+00
  0.00000000E+00  0.00000000E+00  0.00000000E+00
  0.00000000E+00  0.00000000E+00  0.00000000E+00
  0.00000000E+00  0.00000000E+00  0.00000000E+00
  0.00000000E+00  0.00000000E+00  0.00000000E+00
  0.00000000E+00  0.00000000E+00  0.00000000E+00
  0.00000000E+00  0.00000000E+00  0.00000000E+00
  0.00000000E+00  0.00000000E+00  0.00000000E+00
  0.00000000E+00  0.00000000E+00  0.00000000E+00
  0.00000000E+00  0.00000000E+00  0.00000000E+00
  0.00000000E+00  0.00000000E+00  0.00000000E+00
  0.00000000E+00  0.00000000E+00  0.00000000E+00
  0.00000000E+00  0.00000000E+00  0.00000000E+00
  0.00000000E+00  0.00000000E+00  0.00000000E+00
  0.00000000E+00  0.00000000E+00  0.00000000E+00
  0.00000000E+00  0.00000000E+00  0.00000000E+00
  0.00000000E+00  0.00000000E+00  0.00000000E+00
  0.00000000E+00  0.00000000E+00  0.00000000E+00
  0.00000000E+00  0.00000000E+00  0.00000000E+00
  0.00000000E+00  0.00000000E+00  0.00000000E+00
  0.00000000E+00  0.00000000E+00  0.00000000E+00
  0.00000000E+00  0.00000000E+00  0.00000000E+00
  0.00000000E+00  0.00000000E+00  0.00000000E+00
  0.00000000E+00  0.00000000E+00  0.00000000E+00
  0.00000000E+00  0.00000000E+00  0.00000000E+00
  0.00000000E+00  0.00000000E+00  0.00000000E+00
  0.00000000E+00  0.00000000E+00  0.00000000E+00
  0.00000000E+00  0.00000000E+00  0.00000000E+00
  0.00000000E+00  0.00000000E+00  0.00000000E+00
  0.00000000E+00  0.00000000E+00  0.00000000E+00
  0.00000000E+00  0.00000000E+00  0.00000000E+00
  0.00000000E+00  0.00000000E+00  0.00000000E+00
  0.00000000E+00  0.00000000E+00  0.00000000E+00
  0.00000000E+00  0.00000000E+00  0.00000000E+00
  0.00000000E+00  0.00000000E+00  0.00000000E+00
  0.00000000E+00  0.00000000E+00  0.00000000E+00
  0.00000000E+00  0.00000000E+00  0.00000000E+00
  0.00000000E+00  0.00000000E+00  0.00000000E+00
  0.00000000E+00  0.00000000E+00  0.00000000E+00
  0.00000000E+00  0.00000000E+00  0.00000000E+00
  0.00000000E+00  0.00000000E+00  0.00000000E+00
  0.00000000E+00  0.00000000E+00  0.00000000E+00
  0.00000000E+00  0.00000000E+00  0.00000000E+00
  0.00000000E+00  0.00000000E+00  0.00000000E+00
  0.00000000E+00  0.00000000E+00  0.00000000E+00
  0.00000000E+00  0.00000000E+00  0.00000000E+00
  0.00000000E+00  0.00000000E+00  0.00000000E+00
  0.00000000E+00  0.00000000E+00  0.00000000E+00
  0.00000000E+00  0.00000000E+00  0.00000000E+00
  0.00000000E+00  0.00000000E+00  0.00000000E+00
  0.00000000E+00  0.00000000E+00  0.00000000E+00
  0.00000000E+00  0.00000000E+00  0.00000000E+00
  0.00000000E+00  0.00000000E+00  0.00000000E+00
  0.00000000E+00  0.00000000E+00  0.00000000E+00
  0.00000000E+00  0.00000000E+00  0.00000000E+00
  0.00000000E+00  0.00000000E+00  0.00000000E+00
  0.00000000E+00  0.00000000E+00  0.00000000E+00
  0.00000000E+00  0.00000000E+00  0.00000000E+00
  0.00000000E+00  0.00000000E+00  0.00000000E+00
  0.00000000E+00  0.00000000E+00  0.00000000E+00
  0.00000000E+00  0.00000000E+00  0.00000000E+00
  0.00000000E+00  0.00000000E+00  0.00000000E+00
  0.00000000E+00  0.00000000E+00  0.00000000E+00
  0.00000000E+00  0.00000000E+00  0.00000000E+00
  0.00000000E+00  0.00000000E+00  0.00000000E+00
  0.00000000E+00  0.00000000E+00  0.00000000E+00
  0.00000000E+00  0.00000000E+00  0.00000000E+00
  0.00000000E+00  0.00000000E+00  0.00000000E+00
  0.00000000E+00  0.00000000E+00  0.00000000E+00
  0.00000000E+00  0.00000000E+00  0.00000000E+00
  0.00000000E+00  0.00000000E+00  0.00000000E+00
  0.00000000E+00  0.00000000E+00  0.00000000E+00
  0.00000000E+00  0.00000000E+00  0.00000000E+00
  0.00000000E+00  0.00000000E+00  0.00000000E+00
  0.00000000E+00  0.00000000E+00  0.00000000E+00
  0.00000000E+00  0.00000000E+00  0.00000000E+00
  0.00000000E+00  0.00000000E+00  0.00000000E+00
  0.00000000E+00  0.00000000E+00  0.00000000E+00
  0.00000000E+00  0.00000000E+00  0.00000000E+00
  0.00000000E+00  0.00000000E+00  0.00000000E+00
  0.00000000E+00  0.00000000E+00  0.00000000E+00
  0.00000000E+00  0.00000000E+00  0.00000000E+00
  0.00000000E+00  0.00000000E+00  0.00000000E+00
  0.00000000E+00  0.00000000E+00  0.00000000E+00
  0.00000000E+00  0.00000000E+00  0.00000000E+00
  0.00000000E+00  0.00000000E+00  0.00000000E+00
  0.00000000E+00  0.00000000E+00  0.00000000E+00
  0.00000000E+00  0.00000000E+00  0.00000000E+00
  0.00000000E+00  0.00000000E+00  0.00000000E+00
  0.00000000E+00  0.00000000E+00  0.00000000E+00
  0.00000000E+00  0.00000000E+00  0.00000000E+00
  0.00000000E+00  0.00000000E+00  0.00000000E+00
  0.00000000E+00  0.00000000E+00  0.00000000E+00
  0.00000000E+00  0.00000000E+00  0.00000000E+00
  0.00000000E+00  0.00000000E+00  0.00000000E+00
  0.00000000E+00  0.00000000E+00  0.00000000E+00
  0.00000000E+00  0.00000000E+00  0.00000000E+00
  0.00000000E+00  0.00000000E+00  0.00000000E+00
  0.00000000E+00  0.00000000E+00  0.00000000E+00
  0.00000000E+00  0.00000000E+00  0.00000000E+00
  0.00000000E+00  0.00000000E+00  0.00000000E+00
  0.00000000E+00  0.00000000E+00  0.00000000E+00
  0.00000000E+00  0.00000000E+00  0.00000000E+00
  0.00000000E+00  0.00000000E+00  0.00000000E+00
  0.00000000E+00  0.00000000E+00  0.00000000E+00
  0.00000000E+00  0.00000000E+00  0.00000000E+00
  0.00000000E+00  0.00000000E+00  0.00000000E+00
