ZnO_opted_init                          
    1.000000000000000     
    19.4241008758999989    0.0000000000000000    0.0000000000000000
     0.0000000000000000   22.4290008544999999    0.0000000000000000
     0.0000000000000000    0.0000000000000000   34.2113990783999995
   Zn   O 
   192   192
Direct
  0.0827614818575706  0.0351158641413803  0.1556496653526042
  0.0810130933739703  0.0434255197681592  0.3118230749657569
 -0.0003999506834289  0.1668321138443933  0.1667659678832635
  0.9991618043556115  0.1648455178183686  0.3330965149695718
  0.9980224779792112  0.0814107670723165  0.2303099469661188
  0.9978374977982677  0.0800568452985839  0.3987060061696466
  0.0823145542067679  0.2043485097861334  0.2515138617989274
  0.0816808761837885  0.2133434442669989  0.4062006333579004
  0.2493068885243054  0.0358115251634000  0.1670947798439162
  0.2498389751509332  0.0398040418086257  0.3317041867221882
  0.1663617434077428  0.1681701554320947  0.1655905484466020
  0.1666739468875262  0.1679196063004436  0.3322098116152191
  0.1636947520208837  0.0833642393336761  0.2308987184387574
  0.1603486214746171  0.0829388696148379  0.3971445957215339
  0.2494522341795949  0.2062114143430327  0.2506914537124205
  0.2495389234971970  0.2147706888347896  0.4068989082108124
  0.4198661217100018  0.0423381399450821  0.1572496368752643
  0.4150375713663110  0.0400920793339841  0.3109045141123764
  0.3337404634281283  0.1690527722841068  0.1651953442209992
  0.3335321971485237  0.1691791415030905  0.3310494132549906
  0.3343777891056604  0.0849517044154205  0.2308255924502176
  0.3372654360452584  0.0836832536265334  0.3962927411360702
  0.4174898483630373  0.2076803838729216  0.2497196736437648
  0.4168611899084534  0.2159766888159519  0.4045003397498927
  0.5806572495395333  0.0373758398670446  0.1649578802943592
  0.5820857179885318  0.0400458269203554  0.3310208183883517
  0.5005866123170315  0.1656261731615425  0.1642397774019129
  0.5006346992496417  0.1681409531398978  0.3297564063438166
  0.5042817607413033  0.0878934978889372  0.2496547088702331
  0.4970578136040843  0.0848261972431551  0.4043391710367489
  0.5837139530336668  0.2076994712019652  0.2492785144508907
  0.5836406086619368  0.2157000349611486  0.4042866432866248
  0.7499029096417197  0.0342007359181068  0.1531731277032137
  0.7510840786859870  0.0433948861589996  0.3105235641913068
  0.6669068783554197  0.1673820498631846  0.1636046277323649
  0.6669611037700894  0.1688602191271741  0.3305280821244848
  0.6674940001717621  0.0825582932982746  0.2279317300424610
  0.6716157126179344  0.0828447149496712  0.3944293018336210
  0.7493714228350853  0.2051712794509864  0.2504241596151224
  0.7493817198694290  0.2149887053846968  0.4073086869740660
  0.9161804751232798  0.0340038773361621  0.1550690209630939
  0.9153844440568839  0.0432444544793380  0.3125572087479364
  0.8329459016010352  0.1668022226214309  0.1654235860258499
  0.8321569032452454  0.1654825101277781  0.3331896257333881
  0.8319459363565850  0.0815162183218515  0.2292504784988426
  0.8319378472197778  0.0807033073902213  0.3986323579908623
  0.9152169842384124  0.2032989702560928  0.2517331000363197
  0.9156170915087936  0.2122943665667074  0.4060249524934794
  0.0835926764075744  0.2851623518139227  0.1593881508700051
  0.0832205099159658  0.2931010025111023  0.3138012557259629
  0.0039550187750895  0.4144249329477214  0.1604075191355938
  0.9965952662981966  0.4128873259389091  0.3145879710806607
  0.9996175057049724  0.3319576226797606  0.2342957559401910
  0.9990889690883010  0.3340275616229586  0.3980514151297210
  0.0872180340653030  0.4591269263888629  0.2533081448300189
  0.0811063345657502  0.4576806027783564  0.4079215480663426
  0.2502412664244145  0.2866408811073923  0.1570277808776374
  0.2502274286794203  0.2953511426499114  0.3124052004278484
  0.1679067465835454  0.4191902821715998  0.1661929639108493
  0.1679065228043647  0.4161224979435469  0.3341786259011070
  0.1664823963825190  0.3325687602119658  0.2313143347537714
  0.1670651551681075  0.3307768148657701  0.3985489520785356
  0.2499373013199208  0.4546893892032425  0.2507469774294769
  0.2506006110350174  0.4647251273116987  0.4084078815882796
  0.4176966199539204  0.2876088860850154  0.1571979281827479
  0.4170880256195614  0.2963800291536748  0.3121404951467669
  0.3339624341166333  0.4194091665111174  0.1652596050905550
  0.3336399044306023  0.4174464507201879  0.3329154300099458
  0.3334353014549989  0.3337267979674760  0.2303795943708044
  0.3333047712524081  0.3319313546789275  0.3976580198846381
  0.4166121466712525  0.4559370459407184  0.2507677885959919
  0.4169035173729720  0.4640531635293229  0.4074377015786108
  0.5837439895964129  0.2875830792633864  0.1572503340177910
  0.5843465091780431  0.2966316592431662  0.3121158422360070
  0.5007356738402332  0.4202695455220614  0.1651158645276716
  0.5008949669708292  0.4181521416435371  0.3326320062508742
  0.5003291368868811  0.3350835754008480  0.2304328595234220
  0.5005607488094996  0.3328356742606464  0.3970557872782472
  0.5838986702444990  0.4562196125142133  0.2506914772312565
  0.5834951448539092  0.4651775380636356  0.4082541386305453
  0.7498713461796386  0.2849401802952157  0.1569161469226882
  0.7499089339425672  0.2947586666872048  0.3128542422742619
  0.6675067057422330  0.4196256886839947  0.1646790183477252
  0.6671526061063133  0.4182018131281405  0.3346042520520366
  0.6669413781118237  0.3345400586983320  0.2302042979548832
  0.6673438430880078  0.3329240846175411  0.3986650047634263
  0.7482064486186909  0.4561148306352408  0.2531370389331097
  0.7509080162343987  0.4657642115824837  0.4099592442615013
  0.9160354209762842  0.2841123781466163  0.1599448058723900
  0.9158480142267801  0.2924763348158284  0.3143479440380656
  0.8278378265873381  0.4169415185190882  0.1693372463008138
  0.8320811382145582  0.4172564818552196  0.3350993668790138
  0.8328582174688244  0.3312852554553350  0.2330812300974921
  0.8324962312641845  0.3325097115695855  0.3998131815245686
  0.9181274984904789  0.4596727474496917  0.2343426779964132
  0.9196065806655651  0.4633132879992757  0.3978973754898437
  0.0840985816572902  0.5353465918529768  0.1670808424700244
  0.0832782105058776  0.5381207485087849  0.3337755635044785
  0.0010463392599210  0.6700003370278639  0.1646400735794965
  0.0000622836374066  0.6697454551116420  0.3313549780977443
  0.9984174199984446  0.5853329455667352  0.2313225906605569
  0.9946734769975543  0.5834864467016390  0.3953697782140341
  0.0837246204858945  0.7064864812427740  0.2505573277450145
  0.0825886974788343  0.7152382917565316  0.4071730991410560
  0.2511249643134273  0.5363729876098136  0.1544290869717700
  0.2512416781698841  0.5432185740787827  0.3119936675524920
  0.1676494322692820  0.6686034872750241  0.1648937671592911
  0.1660188750130071  0.6679788545409752  0.3324826560870323
  0.1692697189993008  0.5831573227382155  0.2297374464438170
  0.1712328590920154  0.5830157059612557  0.3971700572074544
  0.2497915752927232  0.7041452457368550  0.2518679881784926
  0.2497561051569446  0.7142684777122389  0.4077565625419814
  0.4172512025135766  0.5363038368727708  0.1561211889721475
  0.4169155024564875  0.5436497229159470  0.3129573194209782
  0.3335442901449704  0.6686393477459405  0.1668264840707283
  0.3329681639506026  0.6651203751365836  0.3337975133900101
  0.3333457247266826  0.5815809860640223  0.2303206881940737
  0.3335074367347668  0.5805129934144078  0.3990111021643740
  0.4165743913748347  0.7030570745426293  0.2525151040866543
  0.4165908792229964  0.7119048522276679  0.4066148236920772
  0.5829974865942928  0.5366074213418981  0.1564255230183854
  0.5838859937384040  0.5439877971426182  0.3129014769962797
  0.5001513642869757  0.6687470675967758  0.1674470231470493
  0.5005809501877981  0.6652172510904243  0.3336784273819737
  0.5001149276646305  0.5822576412615067  0.2311867118472101
  0.4997933396484706  0.5802424305151973  0.3988710322052493
  0.5840552990193725  0.7046525946944618  0.2520045475141510
  0.5828281293628373  0.7134127750912179  0.4067326685015488
  0.7485676818996601  0.5353674220845386  0.1557000681244480
  0.7496952737869044  0.5451429854843791  0.3136346861776069
  0.6668566322308352  0.6687705509130712  0.1662679634893535
  0.6674846155609372  0.6670240037357439  0.3336459729842936
  0.6668988958991533  0.5828275037381996  0.2308972040559331
  0.6661246290195992  0.5816816839174983  0.3989995161263946
  0.7502222496091885  0.7057459836814357  0.2509469125656270
  0.7499058635647006  0.7148177113208526  0.4075365024952988
  0.9166952889167217  0.5402045637450013  0.1594033205537519
  0.9158227226021017  0.5421402230357550  0.3126299921282389
  0.8333467145727425  0.6688043448275619  0.1657093220245665
  0.8337945516074377  0.6678806738861763  0.3327221455582103
  0.8321618549032096  0.5837384879945207  0.2317150386504439
  0.8325421428949872  0.5815248807838115  0.3974062315336048
  0.9164033137150821  0.7073119526467498  0.2506971130983297
  0.9159507549260266  0.7153175504774386  0.4068163548850209
  0.0847919213619355  0.7878470361437026  0.1574181714447208
  0.0836276730245502  0.7956336769806179  0.3124901693758180
 -0.0003247963007312  0.9184871764402219  0.1652845259499334
 -0.0002290400637834  0.9173124724843408  0.3325893129079714
 -0.0000120998404967  0.8337318824321451  0.2304924130036754
 -0.0007650175529131  0.8320137251659078  0.3975969136441155
  0.0831184160782895  0.9552789620337527  0.2506509117922346
  0.0811844309732154  0.9643389437683346  0.4080839991593556
  0.2509030221315973  0.7861556112600374  0.1580327600449114
  0.2503941469075119  0.7935159203877185  0.3135318361758627
  0.1679624032989945  0.9197212951330341  0.1679341073116197
  0.1658132837662136  0.9165332623020155  0.3336312026922385
  0.1673327187946700  0.8330739198030583  0.2319125069838585
  0.1658147856886150  0.8307769604084856  0.3986382563672772
  0.2497307185367736  0.9583184972817299  0.2543057705071452
  0.2489977034927199  0.9598417660711699  0.4074631261423561
  0.4164725672602569  0.7856103982113939  0.1603909719588879
  0.4171153702535401  0.7924415177295445  0.3147911606848214
  0.3281825277824434  0.9179244458588985  0.1717631988625437
  0.3341264445257377  0.9162205898046792  0.3354955985973144
  0.3336224080472522  0.8306109810415081  0.2345370672876181
  0.3329636881597164  0.8307395718012335  0.4002158987062113
  0.4189666054266011  0.9605249294398264  0.2330181065544880
  0.4201882728023454  0.9628089764557881  0.3991085521403387
  0.5837915234236516  0.7857722331676902  0.1593112896551206
  0.5830523845036222  0.7934284392112995  0.3139611128248318
  0.5036666779341971  0.9158402344426745  0.1604971615931456
  0.4970874829222304  0.9136453195676071  0.3137311625036432
  0.5000780186703973  0.8321320438024713  0.2342881881027223
  0.4994116144976353  0.8348156852560895  0.3988454327772577
  0.5868277304927068  0.9598284727407592  0.2513752058899289
  0.5809309695441947  0.9575083918828842  0.4054895877686606
  0.7501241276616579  0.7849944035099531  0.1559286590139101
  0.7506376426945354  0.7939792717074970  0.3123927536899099
  0.6684329447806874  0.9185901976556947  0.1656654294817249
  0.6681155423623415  0.9163840052336975  0.3322166783766550
  0.6671826119371618  0.8324856092304928  0.2312302408230646
  0.6669949469354717  0.8311365197474794  0.3972795155583708
  0.7503609781524903  0.9546323871115323  0.2498033616981431
  0.7500587515214613  0.9644970919140657  0.4075320119975627
  0.9172516853316351  0.7855685965871565  0.1559367688082503
  0.9165923553257000  0.7957114381882215  0.3124160165013006
  0.8339889928006031  0.9177145626653762  0.1640500540159444
  0.8332974394148531  0.9169657193031530  0.3325526987864729
  0.8334389752406937  0.8332321364873005  0.2298289955992623
  0.8328900925694449  0.8317133167992362  0.3976955108589000
  0.9161131253969129  0.9555037516315573  0.2503762017971685
  0.9154861736639213  0.9643572954009504  0.4074949712803239
  0.0812313359332661  0.0455534059729941  0.2525063647569482
  0.0816098665563790  0.0458490399039343  0.4195479716802687
  0.9990329109649827  0.1699042787036276  0.2288833503325892
  0.9992470960862860  0.1691761864431725  0.3942089141617571
  0.9984753926978237  0.0772348505142740  0.1692846498288903
 -0.0015355672269190  0.0764851365196206  0.3364478239050662
  0.0818107720838986  0.2044770161845034  0.1480958827957887
  0.0817192091704638  0.2030298577257425  0.3118508108698893
  0.2493973065243446  0.0410609529659607  0.2369527819338230
  0.2491012182564136  0.0433281735826412  0.3998365601542704
  0.1660712181040601  0.1712960616795352  0.2289011523920529
  0.1667118009614511  0.1712422818292424  0.3943089565946353
  0.1628841647569746  0.0800309155644691  0.1685838093806206
  0.1623240057731666  0.0802210247680291  0.3343685565104926
  0.2494682284311172  0.2050398422241094  0.1476724576759637
  0.2492855898561451  0.2052024249052042  0.3111310524106565
  0.4148605186697898  0.0431105208837704  0.2513345289973438
  0.4161897359044244  0.0449968194744685  0.4171921588830412
  0.3334454464429618  0.1724120591809692  0.2289788132318417
  0.3334979332049656  0.1724299702563579  0.3935682941449684
  0.3347828200802398  0.0805999905912864  0.1688196553257006
  0.3366532338271310  0.0818850310508610  0.3335249040299366
  0.4172407554679746  0.2063025329455619  0.1485060803572521
  0.4167276529121510  0.2066648833159462  0.3107609387908894
  0.5792639759437835  0.0397210231637074  0.2291629057298598
  0.5805819977831750  0.0426105309324853  0.3937007457898917
  0.5002503600806559  0.1695586332741702  0.2285540180090816
  0.5001141076304406  0.1699897610486607  0.3915491645798300
  0.5019743709643789  0.0824769379866752  0.1498977306903410
  0.5041604028022899  0.0851955643283202  0.3113066711279621
  0.5838320215543980  0.2063535902187653  0.1484932770724050
  0.5843668806144909  0.2070197932949674  0.3104370362960409
  0.7487368853631052  0.0447967070981781  0.2511576924506981
  0.7479341336231657  0.0459954031815804  0.4193605834528238
  0.6663026290091182  0.1706450559694769  0.2279941692208031
  0.6661715157172580  0.1715062714185551  0.3933014167220078
  0.6707965255121606  0.0793769624997076  0.1666724867048026
  0.6707211120200071  0.0814972015591699  0.3329955828437824
  0.7510420132479878  0.2039255873702695  0.1458223536403453
  0.7515235880864451  0.2045271118017503  0.3105279586371444
  0.9146437076446958  0.0457401419369831  0.2526110237315968
  0.9146695141208635  0.0456733203086116  0.4191135818691345
  0.8324064135797267  0.1700854397532386  0.2276786126936124
  0.8311245828802335  0.1700711446928375  0.3943660661100283
  0.8334371409294151  0.0768690229465407  0.1684065174914074
  0.8325103577479601  0.0770772651903231  0.3363167950149389
  0.9168915336820289  0.2036474187730153  0.1476341369166466
  0.9159157615995703  0.2023511726782483  0.3119853767940842
  0.0843422694619952  0.2942170478680285  0.2527930845735416
  0.0828999559129774  0.2946514478776696  0.4147552800397331
  0.9975597770954457  0.4152409296083898  0.2524861087607490
  0.9987490085249043  0.4171516135955152  0.4113260819853935
 -0.0006945510682064  0.3297994220291812  0.1726123781818262
 -0.0001691118924110  0.3305150515123253  0.3345216537035280
  0.0836225131735638  0.4553660466414714  0.1474895687092899
  0.0867788021132592  0.4569862329969978  0.3131573303404137
  0.2506995852564906  0.2967560128556178  0.2524214501291628
  0.2509864602296504  0.2960646705179736  0.4179692268003700
  0.1662970713507662  0.4204950665148597  0.2280395249189060
  0.1690435044199880  0.4207185964420375  0.3952829000691101
  0.1662904972495232  0.3293797996562736  0.1697118473931952
  0.1667979341445134  0.3282066100598685  0.3358615769164749
  0.2503612980336795  0.4542453917603989  0.1458074048758753
  0.2501993222033327  0.4529318399643321  0.3107955129865308
  0.4173275867866930  0.2978368514843678  0.2520465154924498
  0.4175660477342037  0.2967259625414532  0.4164575562622427
  0.3336012980129842  0.4220984493745242  0.2274012844850559
  0.3334520088348907  0.4219168840141571  0.3941258872760158
  0.3333313423662544  0.3298317648669002  0.1693793570591232
  0.3334559794301539  0.3290945006777025  0.3357243823336268
  0.4171380260703061  0.4548697007599385  0.1455897923812353
  0.4169685994769715  0.4533261018337191  0.3107577367519567
  0.5834766527852144  0.2978088728828301  0.2518871092829687
  0.5830094924503938  0.2962764712481999  0.4165420359308575
  0.5003008241386925  0.4233825128809539  0.2273804477046693
  0.5005278342854528  0.4224678818451427  0.3938438554430955
  0.5007879965058306  0.3311211630671281  0.1694471756672839
  0.5005374041816187  0.3297955680744319  0.3353293056442034
  0.5843440556797451  0.4552557418685372  0.1454947558731353
  0.5845356373266782  0.4536688998149795  0.3107077580677707
  0.7479617743756747  0.2955435946387902  0.2525487690700600
  0.7489840361755552  0.2958938211105971  0.4188720107350395
  0.6671368451104951  0.4229775495723360  0.2269182667136072
  0.6666533191444421  0.4227295748508045  0.3955638642582825
  0.6681093045889314  0.3303185736775489  0.1690513399714382
  0.6671754174318656  0.3296907080654429  0.3362393618866152
  0.7520507823856990  0.4539039216028672  0.1438088904045923
  0.7500264957238285  0.4548735576776987  0.3123440420255671
  0.9155871108954748  0.2930996488891850  0.2530041140645130
  0.9161296820223256  0.2936059642881671  0.4141251799228585
  0.8296221700757758  0.4191554270157813  0.2306804617397712
  0.8296915103342513  0.4203271548706076  0.3962618008937065
  0.8332773170822158  0.3284133929212045  0.1706176514357652
  0.8328501280822175  0.3290018723817258  0.3355553285764149
  0.9194831104821740  0.4561874979832226  0.1700038476135091
  0.9195138577451364  0.4600731157318347  0.3325491871758989
  0.0825904331830552  0.5393114866208039  0.2318375786403149
  0.0832457023820200  0.5417129768754692  0.3980041124193117
  0.9996334983006231  0.6723035159569511  0.2283012495406908
 -0.0004239130949918  0.6727239993881290  0.3934937346262932
  0.9991378726909341  0.5820685913295973  0.1670075984604886
  0.9984732495462040  0.5829727472931581  0.3314459064994709
  0.0846589963330813  0.7062603028684510  0.1474337682420457
  0.0841850082803936  0.7058474234287188  0.3107399874236328
  0.2503051844792257  0.5450638460024745  0.2523391652497774
  0.2499955818172974  0.5462661079313879  0.4198622889530862
  0.1666058011141113  0.6707614760191535  0.2284966536954433
  0.1657638916369696  0.6718705551031975  0.3947514996429259
  0.1705288227686722  0.5803629230091918  0.1674015029314780
  0.1708201668776636  0.5808172758678004  0.3344566453741004
  0.2514942401720634  0.7049871770202482  0.1468835586207562
  0.2509187212235356  0.7034133233467841  0.3121337449132812
  0.4166702913814955  0.5461762631291424  0.2527822816282029
  0.4164970569052736  0.5453929415697701  0.4187318701299118
  0.3332142738072888  0.6699732292129096  0.2290205871152519
  0.3318700710196450  0.6700627381307415  0.3949208295932476
  0.3343743785813866  0.5788711025136593  0.1692614105438353
  0.3337471302819419  0.5767074687981228  0.3367382179292048
  0.4173155855179513  0.7049613636721641  0.1483675794811924
  0.4168291093216861  0.7023651698906430  0.3127640741549808
  0.5837890794164629  0.5464626422434123  0.2527204140469780
  0.5831408422424208  0.5465989523569074  0.4191462181585085
  0.5005355896551794  0.6705781221823043  0.2291920843575086
  0.5001490601666352  0.6694794782707113  0.3946632145061846
  0.5001948925976394  0.5790606694294055  0.1697896524054814
  0.5002795493909036  0.5769181846557471  0.3363028502862301
  0.5829660307689273  0.7047336113741374  0.1480248666445758
  0.5832854220284197  0.7032572845974510  0.3122076761754473
  0.7497236779971448  0.5463396622609465  0.2530053727186890
  0.7495929989189832  0.5478653498886861  0.4187075492437458
  0.6670772786530872  0.6709823633670315  0.2281882397975319
  0.6671155253232780  0.6712245071564741  0.3946318280082863
  0.6666841678907131  0.5786761452668039  0.1694647174268037
  0.6660790790939057  0.5787547769718067  0.3364579684326106
  0.7498302643310386  0.7031591054253347  0.1458818614117722
  0.7498146959541435  0.7037746400758448  0.3108229309609440
  0.9160584213287283  0.5439220809126060  0.2519961360288793
  0.9156714427025870  0.5449574241516300  0.4145754211931681
  0.8336951060767731  0.6713515371254460  0.2278229844747280
  0.8330659025221011  0.6721665421692025  0.3938246880393252
  0.8308917896893441  0.5785564042597742  0.1695875435002191
  0.8329741405567109  0.5802264920572434  0.3348248620878247
  0.9163781885100217  0.7038568833796051  0.1459924443320500
  0.9158951303145957  0.7059069258836185  0.3106063395596866
  0.0827491926667723  0.7967511783225983  0.2524614389367193
  0.0818450753771002  0.7967804333105896  0.4179020117071097
  0.9996181622329662  0.9220119180616820  0.2273801435361618
  0.9984941395711000  0.9221477855649217  0.3936414258916709
 -0.0001882575178164  0.8288313560455273  0.1693857342144084
  0.0000912691362272  0.8290712967649591  0.3357184734991271
  0.0842405805857753  0.9528805791513063  0.1476506907472149
  0.0835738968544408  0.9532173657924139  0.3111354341972664
  0.2488611396119463  0.7939174408886804  0.2534030684027650
  0.2486281917109019  0.7956349619169802  0.4186806741405758
  0.1675637875008849  0.9206890170360666  0.2305021684005869
  0.1633647542752213  0.9206610513404674  0.3954963797887149
  0.1682496633538010  0.8296294631294726  0.1706355537884516
  0.1671449311475459  0.8288196966139553  0.3362136095412622
  0.2513724980836352  0.9557867870660661  0.1490112996164590
  0.2507674451443798  0.9560572989566225  0.3144348711380847
  0.4170046785348427  0.7924420282273833  0.2537452672133891
  0.4170519086966168  0.7933848426261080  0.4146205273470972
  0.3313174527709480  0.9174230543172102  0.2339456643185547
  0.3318366786809708  0.9188775290511595  0.3979270918342998
  0.3339912008766404  0.8291581853599757  0.1718724705558101
  0.3333580628910530  0.8288622854358354  0.3357939302929456
  0.4196006276245296  0.9574937129372177  0.1708247612277377
  0.4208392103958780  0.9609286727032067  0.3347652552420602
  0.5849567975776223  0.7944503770544197  0.2529413437264362
  0.5833319365542337  0.7951186670749524  0.4143221256262716
  0.4976739490643486  0.9152627363739581  0.2526136902816373
  0.4992342173041216  0.9179257976752577  0.4138589872349995
  0.5002302863294708  0.8304614784509941  0.1728306789837176
  0.5002121264602022  0.8319514685916375  0.3352061742395076
  0.5845878537482382  0.9548722247963705  0.1482275896375198
  0.5871368238407602  0.9579978037968150  0.3119630466592823
  0.7511208743639410  0.7959769020686117  0.2523027728227641
  0.7499980246169677  0.7966713469323664  0.4175852410596808
  0.6665846608209056  0.9202967876213535  0.2276988777907518
  0.6681711072989728  0.9215152680751375  0.3934554779780527
  0.6675780614667837  0.8285298572460458  0.1696122071676186
  0.6674074152210580  0.8287030347163553  0.3349756235007579
  0.7508305121163448  0.9521211077844217  0.1439008305735901
  0.7509211022028337  0.9531802125430180  0.3099108177194999
  0.9166012752802275  0.7974018832477219  0.2523105817311387
  0.9162218349240284  0.7969797974664279  0.4174362647520684
  0.8336299317947087  0.9214495294235187  0.2264025942281782
  0.8326450147935653  0.9218382481136240  0.3937022761976212
  0.8334118757943778  0.8279286535081278  0.1687246179552450
  0.8332123430533563  0.8288925301748653  0.3357759473171754
  0.9171888864346321  0.9525571677980794  0.1439091677814224
  0.9165212864562459  0.9528660173031329  0.3103821378744708
 
  0.00000000E+00  0.00000000E+00  0.00000000E+00
  0.00000000E+00  0.00000000E+00  0.00000000E+00
  0.00000000E+00  0.00000000E+00  0.00000000E+00
  0.00000000E+00  0.00000000E+00  0.00000000E+00
  0.00000000E+00  0.00000000E+00  0.00000000E+00
  0.00000000E+00  0.00000000E+00  0.00000000E+00
  0.00000000E+00  0.00000000E+00  0.00000000E+00
  0.00000000E+00  0.00000000E+00  0.00000000E+00
  0.00000000E+00  0.00000000E+00  0.00000000E+00
  0.00000000E+00  0.00000000E+00  0.00000000E+00
  0.00000000E+00  0.00000000E+00  0.00000000E+00
  0.00000000E+00  0.00000000E+00  0.00000000E+00
  0.00000000E+00  0.00000000E+00  0.00000000E+00
  0.00000000E+00  0.00000000E+00  0.00000000E+00
  0.00000000E+00  0.00000000E+00  0.00000000E+00
  0.00000000E+00  0.00000000E+00  0.00000000E+00
  0.00000000E+00  0.00000000E+00  0.00000000E+00
  0.00000000E+00  0.00000000E+00  0.00000000E+00
  0.00000000E+00  0.00000000E+00  0.00000000E+00
  0.00000000E+00  0.00000000E+00  0.00000000E+00
  0.00000000E+00  0.00000000E+00  0.00000000E+00
  0.00000000E+00  0.00000000E+00  0.00000000E+00
  0.00000000E+00  0.00000000E+00  0.00000000E+00
  0.00000000E+00  0.00000000E+00  0.00000000E+00
  0.00000000E+00  0.00000000E+00  0.00000000E+00
  0.00000000E+00  0.00000000E+00  0.00000000E+00
  0.00000000E+00  0.00000000E+00  0.00000000E+00
  0.00000000E+00  0.00000000E+00  0.00000000E+00
  0.00000000E+00  0.00000000E+00  0.00000000E+00
  0.00000000E+00  0.00000000E+00  0.00000000E+00
  0.00000000E+00  0.00000000E+00  0.00000000E+00
  0.00000000E+00  0.00000000E+00  0.00000000E+00
  0.00000000E+00  0.00000000E+00  0.00000000E+00
  0.00000000E+00  0.00000000E+00  0.00000000E+00
  0.00000000E+00  0.00000000E+00  0.00000000E+00
  0.00000000E+00  0.00000000E+00  0.00000000E+00
  0.00000000E+00  0.00000000E+00  0.00000000E+00
  0.00000000E+00  0.00000000E+00  0.00000000E+00
  0.00000000E+00  0.00000000E+00  0.00000000E+00
  0.00000000E+00  0.00000000E+00  0.00000000E+00
  0.00000000E+00  0.00000000E+00  0.00000000E+00
  0.00000000E+00  0.00000000E+00  0.00000000E+00
  0.00000000E+00  0.00000000E+00  0.00000000E+00
  0.00000000E+00  0.00000000E+00  0.00000000E+00
  0.00000000E+00  0.00000000E+00  0.00000000E+00
  0.00000000E+00  0.00000000E+00  0.00000000E+00
  0.00000000E+00  0.00000000E+00  0.00000000E+00
  0.00000000E+00  0.00000000E+00  0.00000000E+00
  0.00000000E+00  0.00000000E+00  0.00000000E+00
  0.00000000E+00  0.00000000E+00  0.00000000E+00
  0.00000000E+00  0.00000000E+00  0.00000000E+00
  0.00000000E+00  0.00000000E+00  0.00000000E+00
  0.00000000E+00  0.00000000E+00  0.00000000E+00
  0.00000000E+00  0.00000000E+00  0.00000000E+00
  0.00000000E+00  0.00000000E+00  0.00000000E+00
  0.00000000E+00  0.00000000E+00  0.00000000E+00
  0.00000000E+00  0.00000000E+00  0.00000000E+00
  0.00000000E+00  0.00000000E+00  0.00000000E+00
  0.00000000E+00  0.00000000E+00  0.00000000E+00
  0.00000000E+00  0.00000000E+00  0.00000000E+00
  0.00000000E+00  0.00000000E+00  0.00000000E+00
  0.00000000E+00  0.00000000E+00  0.00000000E+00
  0.00000000E+00  0.00000000E+00  0.00000000E+00
  0.00000000E+00  0.00000000E+00  0.00000000E+00
  0.00000000E+00  0.00000000E+00  0.00000000E+00
  0.00000000E+00  0.00000000E+00  0.00000000E+00
  0.00000000E+00  0.00000000E+00  0.00000000E+00
  0.00000000E+00  0.00000000E+00  0.00000000E+00
  0.00000000E+00  0.00000000E+00  0.00000000E+00
  0.00000000E+00  0.00000000E+00  0.00000000E+00
  0.00000000E+00  0.00000000E+00  0.00000000E+00
  0.00000000E+00  0.00000000E+00  0.00000000E+00
  0.00000000E+00  0.00000000E+00  0.00000000E+00
  0.00000000E+00  0.00000000E+00  0.00000000E+00
  0.00000000E+00  0.00000000E+00  0.00000000E+00
  0.00000000E+00  0.00000000E+00  0.00000000E+00
  0.00000000E+00  0.00000000E+00  0.00000000E+00
  0.00000000E+00  0.00000000E+00  0.00000000E+00
  0.00000000E+00  0.00000000E+00  0.00000000E+00
  0.00000000E+00  0.00000000E+00  0.00000000E+00
  0.00000000E+00  0.00000000E+00  0.00000000E+00
  0.00000000E+00  0.00000000E+00  0.00000000E+00
  0.00000000E+00  0.00000000E+00  0.00000000E+00
  0.00000000E+00  0.00000000E+00  0.00000000E+00
  0.00000000E+00  0.00000000E+00  0.00000000E+00
  0.00000000E+00  0.00000000E+00  0.00000000E+00
  0.00000000E+00  0.00000000E+00  0.00000000E+00
  0.00000000E+00  0.00000000E+00  0.00000000E+00
  0.00000000E+00  0.00000000E+00  0.00000000E+00
  0.00000000E+00  0.00000000E+00  0.00000000E+00
  0.00000000E+00  0.00000000E+00  0.00000000E+00
  0.00000000E+00  0.00000000E+00  0.00000000E+00
  0.00000000E+00  0.00000000E+00  0.00000000E+00
  0.00000000E+00  0.00000000E+00  0.00000000E+00
  0.00000000E+00  0.00000000E+00  0.00000000E+00
  0.00000000E+00  0.00000000E+00  0.00000000E+00
  0.00000000E+00  0.00000000E+00  0.00000000E+00
  0.00000000E+00  0.00000000E+00  0.00000000E+00
  0.00000000E+00  0.00000000E+00  0.00000000E+00
  0.00000000E+00  0.00000000E+00  0.00000000E+00
  0.00000000E+00  0.00000000E+00  0.00000000E+00
  0.00000000E+00  0.00000000E+00  0.00000000E+00
  0.00000000E+00  0.00000000E+00  0.00000000E+00
  0.00000000E+00  0.00000000E+00  0.00000000E+00
  0.00000000E+00  0.00000000E+00  0.00000000E+00
  0.00000000E+00  0.00000000E+00  0.00000000E+00
  0.00000000E+00  0.00000000E+00  0.00000000E+00
  0.00000000E+00  0.00000000E+00  0.00000000E+00
  0.00000000E+00  0.00000000E+00  0.00000000E+00
  0.00000000E+00  0.00000000E+00  0.00000000E+00
  0.00000000E+00  0.00000000E+00  0.00000000E+00
  0.00000000E+00  0.00000000E+00  0.00000000E+00
  0.00000000E+00  0.00000000E+00  0.00000000E+00
  0.00000000E+00  0.00000000E+00  0.00000000E+00
  0.00000000E+00  0.00000000E+00  0.00000000E+00
  0.00000000E+00  0.00000000E+00  0.00000000E+00
  0.00000000E+00  0.00000000E+00  0.00000000E+00
  0.00000000E+00  0.00000000E+00  0.00000000E+00
  0.00000000E+00  0.00000000E+00  0.00000000E+00
  0.00000000E+00  0.00000000E+00  0.00000000E+00
  0.00000000E+00  0.00000000E+00  0.00000000E+00
  0.00000000E+00  0.00000000E+00  0.00000000E+00
  0.00000000E+00  0.00000000E+00  0.00000000E+00
  0.00000000E+00  0.00000000E+00  0.00000000E+00
  0.00000000E+00  0.00000000E+00  0.00000000E+00
  0.00000000E+00  0.00000000E+00  0.00000000E+00
  0.00000000E+00  0.00000000E+00  0.00000000E+00