C  O  H  Co
 1.0000000000000000
    38.2795326431623266    0.0000000000000000    0.0000000000000000
     0.0000000000000000   22.1007096745233689    0.0000000000000000
     0.0000000000000000    0.0000000000000000   43.2000007628999967
 C   O   H   Co 
 144  48  48  12
Cartesian
 24.2469857264575737 20.4321311972227875  6.3834938620315143
 14.0316006325871427  1.6617638912363721 12.2681441772138449
 14.0314874199975961 20.4391832631115840  6.3559099785437887
 24.2468539031304360  1.6682681430268651 12.2405308492838625
  5.1072080513583007  9.3825749518976771  6.3832741351878814
 33.1713635311363291 12.7121479217706792 12.2681566363834680
 33.1712662201455899  9.3886530593238327  6.3553260514524945
  5.1071003796002907 12.7186287696841198 12.2405834715790895
 25.6260327233811935  1.8720741810864829  6.5005052853689662
 12.6548908114168288 20.2209163666920162 12.0658736122887262
 12.6551234804542752  1.8802508267048454  6.5581797159906650
 25.6261351454284636 20.2284073781096687 12.1234240530386277
  6.4865550439133717 12.9230519701663980  6.5000758621571828
 31.7944422107112175  9.1704802100406742 12.0670518377467939
 31.7940028215250372 12.9299165051035310  6.5572841015205841
  6.4863560479389450  9.1780365320125714 12.1235993327449254
 26.8502772780830128  2.5679475601491690  6.5478565910170357
 11.4279729784231581 19.5300266266013729 12.0438696554319193
 11.4281304017671950  2.5711313297989564  6.5799631766704385
 26.8503392054628129 19.5325616438606104 12.0760485481904549
  7.7106733017936495 13.6189376313452417  6.5476285410940491
 30.5675677910137047  8.4796174623108662 12.0448948078676263
 30.5670097183853962 13.6207287105587174  6.5793340857881653
  7.7105712197621195  8.4821693948015309 12.0763190431145926
 26.7597105212500921 20.3496489204727240  6.5988104553738669
 11.5234305909576999  1.7429295304604753 12.0412541219677021
 11.5233990412062983 20.3581849200723006  6.5828027769881743
 26.7595933216000894  1.7508112477348878 12.0251784929826897
  7.6198186446399099  9.2998991585075537  6.5989037911472064
 30.6632621580913103 12.7933116766799255 12.0413861467375902
 30.6633103717426394  9.3072528705722366  6.5826893621470859
  7.6198512528816797 12.8011433717453791 12.0250176022608457
 23.0080275394608158 19.7872994178298427  6.2806561273005714
 15.2695139344122648  2.3123257450018344 12.3452117076748991
 15.2692438009561986 19.7883672735654557  6.2786415603030825
 23.0077795223740011  2.3129839027711903 12.3432897021622061
  3.8680801746135387  8.7380069492642338  6.2804379575973313
 34.4092856190975738 13.3627425076047963 12.3447954859584321
 34.4091855918483489  8.7381179328249363  6.2784094043045666
  3.8679965341747695 13.3633152539491711 12.3434600923224060
 21.7911985081786810 20.4791503999325819  6.4315296336975827
 16.4881226290032892  1.6181019396876097 12.2102301071251453
 16.4880224435011087 20.4822748722818169  6.4135854675340713
 21.7910232173333114  1.6209992928337849 12.1923364881767498
  2.6513438594776240  9.4299152111633813  6.4314678683249520
 35.6276974220671576 12.6684627927703062 12.2098268112204060
 35.6278975271822915  9.4319555665268453  6.4135349031321267
  2.6512669827642714 12.6712937614623389 12.1925406970070593
 25.5664813045266612  0.4732175385642675  6.5608821885391055
 12.7141320832438982 21.6199034149954556 12.0580316390759936
 12.7142988429154098  0.4812354303072607  6.5661554455465501
 25.5665367271203827 21.6272636791742094 12.0631493815852533
  6.4271950365966743 11.5241877101412200  6.5606126787036487
 31.8537958172894662 10.5695080938480004 12.0588701409896100
 31.8536491040779168 11.5310429265818080  6.5654046542310027
  6.4268262002940499 10.5769107624190042 12.0631617915148084
 27.9266325058841254 19.5924820131517485  6.7586347402552285
 10.3667455974130824  2.5051582531120120 11.8315068409719810
 10.3666656202190062 19.5959862682145456  6.7923874727500069
 27.9264607316712308  2.5080589317961461 11.8651499979508976
  8.7866814647745066  8.5425908126721666  6.7590412461865812
 29.5066303152119858 13.5555830865158011 11.8309441248255549
 29.5069965396185516  8.5448212057195985  6.7934059637320381
  8.7867260218079455 13.5584035622077455 11.8649316073989510
 27.9160739657815107 18.1859847933567558  6.6944663455185944
 10.3724196942180633  3.9089826088643127 11.9391119794370368
 10.3723418635759366 18.1921300246168620  6.6847450973166165
 27.9159381183236377  3.9145117892052337 11.9293043916697439
  8.7764554354233280  7.1360917457119335  6.6949496665572639
 29.5122554083411188 14.9593719835318097 11.9387024343764168
 29.5128094265315788  7.1409710025231377  6.6855979879429528
  8.7762328363515287 14.9648710184608511 11.9290494590538962
 33.1387380836922745 10.8332737637507588  6.5408422934225170
  5.1427137085881727 11.2737557562443484 12.0586593092711407
  5.1429801425207593 10.8275367509144012  6.5651819245909229
 33.1388099786866661 11.2673380999316546 12.0836526713762780
 13.9992036090317260 -0.2168424684026448  6.5415213584030756
 24.2824101996976189 22.3241122796719047 12.0586125925531356
 24.2824268532434004 -0.2237198085761536  6.5654224848387024
 13.9991378678714025 22.3177899647350380 12.0826546614737556
 31.9264805605916422  7.2384809142698314  6.1196772749437054
  6.3393961507826724 14.8811094707806788 12.3778040930386908
  6.3396559082709825  7.2199190991267024  6.2463159868122071
 31.9263363587401514 14.8620768945355675 12.5038538211576054
 12.7863619694730044 18.2894573768250588  6.1197316577836594
 25.4790974499659839  3.8307481089683035 12.3778952095407604
 25.4791406213496536 18.2697466967187161  6.2462453771308857
 12.7864629785946100  3.8116278243503192 12.5043195316153106
 30.7620571280378989  6.4606173095249515  6.2766710666227077
  7.5108567799504344 15.6532220701625793 12.2526663661008399
  7.5110381856969717  6.4477175183623734  6.3714440682577020
 30.7616730907146376 15.6397544356233791 12.3469492667000900
 11.6218045481045724 17.5118019159421578  6.2766815853847735
 26.6505387235990199  4.6028215846140581 12.2528698175560429
 26.6505539449983821 17.4977596032588743  6.3711257990091301
 11.6218758338131067  4.5892979010646275 12.3472641429158436
 30.6144085497826097 10.7662791754440192  6.5959124029967207
  7.6646503172982126 11.3404712038320934 11.9950524317502047
  7.6648996993761003 10.7605611950324001  6.6288409919345765
 30.6144655592192976 11.3342629440014058 12.0278142833693202
 11.4749354411160720 -0.2835017321971074  6.5966098386977219
 26.8043597962015987 22.3908662397839500 11.9951415674186492
 26.8042904603446956 -0.2904173707064060  6.6289322024463120
 11.4747700045783461 22.3846226610998933 12.0275737576104831
 34.3429221043286788 11.5365418717813188  6.6899151849558276
  3.9399765528977500 10.5710338380841176 11.8916936403376674
  3.9403799293690134 11.5301178893952265  6.7321969527267163
 34.3428990376941385 10.5639453700492343 11.9348381723375088
 15.2035442202107483  0.4862544251829755  6.6902148784247881
 23.0796559913868862 21.6213792440080397 11.8915956287679663
 23.0795726026507637  0.4788988421815698  6.7324079195774269
 15.2033002965351312 21.6143936074494931 11.9339152009775287
 35.5954037551118745 10.8887938886228657  6.6579811856170616
  2.6869126101130840 11.2149642588091805 11.9441491836861076
  2.6869822616674206 10.8860946909149519  6.6799342535890336
 35.5953595396991744 11.2114544730184704 11.9663378710348880
 16.4556908699350792 -0.1617185076869549  6.6587858449909891
 21.8266020617630332 22.2653774735186296 11.9439572490853649
 21.8266380514404368 -0.1652548361501672  6.6799103756962621
 16.4556047726113093 22.2620513221767169 11.9651711472472613
 31.9242177531284312  8.6270962692260760  6.3216194796923375
  6.3517951749403050 13.4852814770366134 12.2402739523265556
  6.3518338029393577  8.6157110525245741  6.3836296032020341
 31.9242058717152482 13.4735437825022970 12.3020087491923604
 12.7842879241877103 19.6779303206591933  6.3220462525654000
 25.4915294300832684  2.4349366459760748 12.2403521229245236
 25.4916523357780527 19.6655610346489524  6.3837237684860106
 12.7844134140700287  2.4231383984448378 12.3020166055410449
 29.3841246091744779 11.4403948614063822  6.6209007177065082
  8.8891434516415622 10.6604243693088119 11.9248031597720452
  8.8892269158825616 11.4406922726567633  6.6991735684038023
 29.3843020574793279 10.6600612931835457 12.0025539483143202
 10.2447322629354787  0.3907363776683423  6.6214531175389650
 28.0288687945399424 21.7108337060637808 11.9247398720989164
 28.0287618669207745  0.3896692944713034  6.6993853032509572
 10.2445215041611100 21.7103881676927060 12.0026738547481617
 29.3097030052126115 12.8463268338591909  6.6314209868591618
  8.9650435033490385  9.2549960846714363 11.9574215974088833
  8.9650967472741439 12.8460931900224420  6.6666746319857486
 29.3102327392102779  9.2540338607625383 11.9923047430899974
 10.1707622601021246  1.7966473610727967  6.6319912045982985
 28.1048151050718999 20.3054130495152201 11.9571780111228030
 28.1046459581696446  1.7950276264439902  6.6668777696655575
 10.1705526872079997 20.3044245869848439 11.9918527135740280
 29.2093178352655976  2.4725743043160846  6.7102029701715757
  9.0686879105753899 19.6247889002277276 11.9507179508354771
  9.0688029015055029  2.4761610793220905  6.6728868048554375
 29.2094343362881332 19.6278276211234584 11.9139188641312543
 10.0698725435015337 13.5233392385300579  6.7096175843415846
 28.2084727239144684  8.5742868247793673 11.9504528470351552
 28.2078342456781428 13.5259736301581697  6.6734146184854506
 10.0696654543814734  8.5774178385869746 11.9143903941800264
 20.6841193023739827  0.4265915651216601  6.8242211906496353
 17.5969188980037643 21.6742278204558190 11.7934259570234623
 17.5970970766762242  0.4259100801123224  6.8305162185598451
 20.6841993747703086 21.6733559235771907 11.7996017502682964
  1.5446144336591825 11.4783405090101507  6.8243147991060837
 36.7367089457560496 10.6238087542157000 11.7944563684346377
 36.7368073044410508 11.4763487676526559  6.8297134942249906
  1.5445748244863766 10.6228339522721971 11.7997752221165513
 26.7007893999824084 16.2093071680628924  6.2507961900433600
 11.5682903259187011  5.8763365156182417 12.4921758305863158
 11.5682076111552483 16.2247624028772819  6.1316984861305297
 26.7009994060817846  5.8912425639692589 12.3732307007646263
  7.5611761016608092  5.1592508048436212  6.2512960166552682
 30.7081358602144086 16.9268630626394341 12.4911990281444734
 30.7084666953949856  5.1734967264451281  6.1320336699077576
  7.5613264617745015 16.9416539645935309 12.3727502458652800
 28.4818155232109724  6.3891383393567844  6.9039833105901058
  9.8125484068133453 15.7122161268505796 11.7306047856600166
  9.8127452927533945  6.3886331445363966  6.8933050774889022
 28.4812649969463934 15.7112813802665965 11.7202512487518717
  9.3414194977315219 17.4401083088085329  6.9028811012631355
 28.9522513461682323  4.6619145275479807 11.7310834920483114
 28.9523469237771920 17.4385562546587671  6.8925603542461298
  9.3414774226515380  4.6609618121021228 11.7208455296809504
 36.7943481423624590  8.8766274839866774  6.3579855447115934
  1.4853545259505136 13.2287143350905652 12.2311000531473617
  1.4856846399039976  8.8720461113455791  6.3929359893283433
 36.7942499639349450 13.2236604152581858 12.2656260660083181
 17.6544116919455263 19.9269793518902709  6.3576715698253556
 20.6251934115959337  2.1785117900964757 12.2309971089010361
 20.6254869109046268 19.9214739557838598  6.3928329051806054
 17.6546490433034293  2.1731566775653137 12.2660178389879295
 30.4536350805038047 14.9080352825096174  6.5507447161866894
  7.8233526814396948  7.1930911673991984 12.1251396078926721
  7.8234889256383529 14.9080000426402037  6.4987709772542033
 30.4542348705290848  7.1922577699298875 12.0736105756661960
 11.3145128492036040  3.8584486807290688  6.5513629199602166
 26.9631343596738020 18.2434436794093635 12.1246640786275393
 26.9632346722177054  3.8570147167495854  6.4991364583824041
 11.3145337397319281 18.2426689440957333 12.0722617414137208
 28.9641731819867161 -0.1626144649413959  6.7526431389466888
  9.3085058698698031 22.2655085848647261 11.9975987936534789
  9.3086439099833829 -0.1642229542622740  6.6266040215276449
 28.9641983535376468 22.2633245461801401 11.8715550721009730
  9.8243881196204494 10.8881259507745334  6.7520980161777571
 28.4482176907944293 11.2151319495468780 11.9964090961407930
 28.4482796598388390 10.8850772622004559  6.6271228812899903
  9.8244713837070439 11.2129181328752932 11.8718498339516767
 23.0916319433132564  1.5517796694977235  6.9147857067213074
 15.1917368164389899 20.5409813771592553 11.7553646634605151
 15.1925325337356956  1.5596638601051409  6.8688032491909228
 23.0918936711483660 20.5484843121203191 11.7092066065712785
  3.9500460483494511 12.6030305128825564  6.9146904667029370
 34.3310352323153865  9.4904479278608243 11.7568500999789141
 34.3304563387816160 12.6099807552886389  6.8684472020852549
  3.9520017843063369  9.4981463517907443 11.7092781977336777
 24.5488604233822159 17.7395071665368214  6.0566242509669150
 13.7120149552133395  4.3313359962940643 12.7430365891962527
 13.7120265660570730 17.7699734006605148  5.8811008012252861
 24.5487436461222757  4.3608680196136822 12.5675915051021043
  5.4089976860748381  6.6902160740160053  6.0570908049784284
 32.8520463880466096 15.3819470291601288 12.7415723281716442
 32.8523223403501348  6.7186337891895125  5.8824419509890982
  5.4089798558249917 15.4111860676606405 12.5673031727580415
 28.5654019211416070  9.0266374138487091  7.0506450644025254
  9.7372269750751581 13.0718427010577134 11.6591330747999411
  9.7370661690016025  9.0293052693550298  6.9648880692781381
 28.5651023625777505 13.0736512976228685 11.5737162841854939
  9.4250227215072471 20.0778009293335593  7.0494755736890280
 28.8769567829719271  2.0214626660800388 11.6593976499362402
 28.8771017355813413 20.0791308746868538  6.9644616890981981
  9.4250873427049786  2.0233481709026004 11.5744406263469326
 34.4568628839171680  7.6615888195131259  6.1342161681367067
  3.8169634681952482 14.4378078801787932 12.4989084942437323
  3.8166234192422084  7.6635410922641380  6.1251847128061074
 34.4569043696719959 14.4394957386218170 12.4883311002369588
 15.3164402767802841 18.7118201793738557  6.1337638369594361
 22.9565532929694527  3.3874398057228405 12.4988460070966010
 22.9566883542822353 18.7128578992025076  6.1250277709942358
 15.3169821109039628  3.3889023894301853 12.4899518612739815
 32.7072786399098021 13.5191604764416891  6.5091402260707820
  5.5725870718872947  8.5938747775681215 12.2102573647759023
  5.5726892015870000 13.5070056741234765  6.4133365039345280
 32.7076737413912539  8.5810707795388534 12.1148382482348325
 13.5685421539605162  2.4695310479424384  6.5104284193042279
 24.7123013956039408 19.6443001051311015 12.2099840205558863
 24.7121796627721437  2.4561550174340843  6.4138271776637890
 13.5682054120140307 19.6315284746050551 12.1136428728818863
 28.5479529288071419 15.5024835424003520  6.6031276520812172
  9.7351131842430192  6.5975119666528963 12.0482795407149990
  9.7351774565144478 15.5034628949984707  6.5756477909689819
 28.5482568735349389  6.5980040891562828 12.0209157039433059
  9.4087174386007373  4.4526607060906356  6.6033775932413956
 28.8748430094105792 17.6478888876369524 12.0476981439399822
 28.8749317856406869  4.4525822841019673  6.5761790006539780
  9.4086400014401139 17.6483680037303898 12.0202609437801762
  0.0008517274026464 10.1943324334400920  6.6298175848625567
  0.0005196726888547 11.9063055099129151 11.9943370957187785
 19.1403194978348985 21.2437587919299169  6.6297522269160938
 19.1402725013775878  0.8561158779896537 11.9939680968141325
