C  O  H  Ni
 1.0000000000000000
    38.2246776784929523    0.0000000000000000    0.0000000000000000
     0.0000000000000000   22.0690391298462139    0.0000000000000000
     0.0000000000000000    0.0000000000000000   43.2000007628999967
 C   O   H   Ni 
 144  48  48  12
Cartesian
 24.2152632062098085 20.3025547586227688  6.3205102888661493
 14.0079643089380355  1.7588738648504869 12.3566833355687393
 14.0077482766545458 20.3102943947277126  6.2660411532602316
 24.2155174245081994  1.7664277614337913 12.3019542972127116
  5.1030240175866126  9.2682111141509029  6.3209265329885325
 33.1204857124960270 12.7935967120901957 12.3565517200815389
 33.1202289215668415  9.2756043323562487  6.2657584447282870
  5.1034055545022694 12.8009175211170216 12.3029423861410994
 25.5266019220500624  1.8136108380220648  6.4856862467283651
 12.7080315367812009 20.2476435859898629 12.3112774097409172
 12.7076647349264071  1.8214915025336584  6.3106209356092284
 25.5268091655158962 20.2553256585575028 12.1378961495361839
  6.4143982146377008 12.8482517916707373  6.4855622564282838
 31.8204975049238428  9.2132008274643304 12.3140279659506469
 31.8201871423890346 12.8558630472832558  6.3107987953288367
  6.4144744128193167  9.2207204669196372 12.1387487818805457
 26.7353904668394975  2.5360483669822589  6.4424519171926509
 11.5020672513064319 19.5208393998020533 12.3030526692792765
 11.5016671917715119  2.5482191846402538  6.3202168327079891
 26.7355884228739420 19.5329090665668552 12.1819930748540965
  7.6232466434811972 13.5706402092242477  6.4425400535067787
 30.6145461931981728  8.4864235660179119 12.3053025518602848
 30.6142105287360700 13.5825970916832510  6.3202062588243004
  7.6232123787150217  8.4981908665821422 12.1818769984237427
 26.7453323399719984 20.2881349043584578  6.3447719286477593
 11.4755448940128346  1.7760697583527467 12.3296322120848458
 11.4753466584412713 20.2929921557599897  6.2946091390811088
 26.7455593496818693  1.7808030649730660 12.2780355016867908
  7.6330699675334595  9.2537232192909702  6.3451933948193879
 30.5880852509214840 12.8107112494546751 12.3292359571946886
 30.5878536039521975  9.2583351233309816  6.2945366883579084
  7.6334540916806404 12.8152783020022500 12.2789538865298269
 22.9904779754925457 19.6236249754768366  6.3278382998886213
 15.2326260752444611  2.4313503416122124 12.4442609414162444
 15.2324471641202468 19.6378885377764760  6.1782420144968491
 22.9907628325754736  2.4454255877787858 12.2937973839972212
  3.8782700760085547  8.5892385592977210  6.3286328358829289
 34.3451954963418373 13.4661572251885957 12.4435264314761920
 34.3449147938779831  8.6032450685355180  6.1771438645502181
  3.8786678808362383 13.4799279826018541 12.2951004308761771
 21.7589944249824434 20.3044025360495262  6.3994664357165227
 16.4637335714821553  1.7494951645192005 12.3772832724962534
 16.4634596058917460 20.3197826688413805  6.2455032215212851
 21.7592622662480437  1.7646505407078930 12.2222834861400376
  2.6467663837979711  9.2700213224748129  6.3999861203010973
 35.5762451200071865 12.7842249120278684 12.3771332334970889
 35.5759498111215464  9.2851494701643862  6.2443574816352685
  2.6471604805097781 12.7992223395929248 12.2236403385981820
 25.4950577859672443  0.4169014458819266  6.3965585316944376
 12.7300740609777723 21.6466805417745647 12.2779458947404283
 12.7298306401700501  0.4224672271473019  6.3449943097081283
 25.4952825228168081 21.6520784713195624 12.2265072240881381
  6.3828479663297548 11.4515388697383944  6.3965691735603629
 31.8426427931554556 10.6122325197713856 12.2792103129660468
 31.8423327384906720 11.4568257220414775  6.3451070726162744
  6.3830899697191281 10.6174942878884178 12.2272271233594623
 27.9423027676611149 19.5701480749383805  6.4480475067070886
 10.2762665636607995  2.4983963230910753 12.3694083284002527
 10.2760687155699380 19.5706004892634944  6.2558539374910334
 27.9424767113513859  2.4988191647478999 12.1744572374396647
  8.8299682348914921  8.5356920893778749  6.4487445193620641
 29.3887319461480274 13.5329954075813870 12.3688478218954057
 29.3885407757048434  8.5359856547104354  6.2553051152395511
  8.8304499524591051 13.5332898673505966 12.1761288567700472
 27.9661567307028704 18.1615713797094749  6.4568144714315938
 10.2530687033283439  3.9064287818676204 12.4107258459524488
 10.2529425394962370 18.1625770318988060  6.2145877753482566
 27.9663575764073222  3.9073839853585435 12.1670386519886424
  8.8537685709957454  7.1271270310515389  6.4574528226172747
 29.3655084894543386 14.9410194553599300 12.4103329156807618
 29.3654174046295822  7.1279594447462777  6.2141149948568044
  8.8542968847512000 14.9418726871551648 12.1678977501730348
 33.1136904139895591 10.7304092637912376  6.3690026102585016
  5.1106284819788694 11.3427138619837251 12.2371915110991107
  5.1103185659862014 10.7264015686175984  6.3865596211980087
 33.1140052709109654 11.3386774344995143 12.2547239126828131
 14.0012137125728842 -0.3039337092066689  6.3691596973676630
 24.2227873611518447 22.3772717848762781 12.2360608236887973
 24.2225645301189338 -0.3082936471253402  6.3864876084172648
 14.0014735230332974 22.3730874829368318 12.2538276474886754
 31.8465076480651312  7.1357648823727793  6.2578468590740579
  6.3846352387932335 14.9376004649351657 12.4028484334615587
  6.3841822355826512  7.1314485029846884  6.2217483429066665
 31.8465983804545232 14.9333586929136697 12.3658308967953197
 12.7340485826078886 18.1704527968157628  6.2568328907192052
 25.4968299801577771  3.9030325795738410 12.4033674922311530
 25.4965090530052940 18.1657870100885894  6.2217669269767573
 12.7341303593995274  3.8986707871318753 12.3661679504519153
 30.6469741153285291  6.3971260170815807  6.2738589305770196
  7.5862617923606308 15.6720104496092141 12.3659153036334715
  7.5856979793005541  6.3969913220770485  6.2595249330052178
 30.6470159207544022 15.6719278068066554 12.3507358014674757
 11.5345887068308084 17.4318185120673341  6.2732009277919252
 26.6984451240644667  4.6374051440837887 12.3664228571618988
 26.6980843504872851 17.4313988992196371  6.2591569569977752
 11.5346286177489379  4.6372356887929413 12.3508878349959499
 30.5813634225167483 10.7221172614310394  6.3488067512230897
  7.6406013678955853 11.3514679154959062 12.3127659958635398
  7.6402883540632018 10.7174890809885905  6.3105828285618770
 30.5816561934695912 11.3469079774407433 12.2756022597572212
 11.4688855234345120 -0.3122662084203539  6.3487040615254537
 26.7527139841252612 22.3860884134580473 12.3127306222591315
 26.7525131468233219 -0.3171324550686525  6.3104356501402794
 11.4690747326857814 22.3813333519144457 12.2756291603516310
 34.3295733367546703 11.4133562871368994  6.5016947202306170
  3.8916912847178642 10.6528352766050265 12.2093607654973759
  3.8914039692530995 11.4163684275603394  6.4142223127648439
 34.3299382635102646 10.6556360189534995 12.1227738304659418
 15.2170906672584927  0.3790187347865955  6.5021382036966049
 23.0038938093013172 21.6873412152246416 12.2081756607069938
 23.0036536041943869  0.3816803872618131  6.4142245508392257
 15.2174162420868839 21.6901251667471549 12.1213876719784519
 35.5667498885172364 10.7382794952324208  6.5072024538311544
  2.6524589158841083 11.3226564061842581 12.2329250581457778
  2.6521452649106254 10.7465794765499805  6.3907722247935830
 35.5670665704648101 11.3307413713475569 12.1163661531315494
 16.4542435798882316 -0.2960625180110405  6.5079564156182013
 21.7646496592097449 22.3571303683536762 12.2317829307467338
 21.7643934203053178 -0.2880778521833249  6.3906051718082093
 16.4545195995330147 22.3651947307638466 12.1157240025169877
 31.8557240900586400  8.5362644986945231  6.2635583140675264
  6.3682781206395296 13.5389601336508658 12.3348675798541603
  6.3678549412464838  8.5301006825335541  6.2892963470548988
 31.8559318149394173 13.5328417592172734 12.3595376163533590
 12.7432514459180126 19.5709697488206977  6.2632652518348459
 25.4803856574541960  2.5044653502628931 12.3343790972316700
 25.4801398487746340 19.5644602625901207  6.2890501315699892
 12.7434363101516155  2.4981583500659306 12.3598706731687482
 29.3767669559809725 11.4335911986410554  6.4121498861440624
  8.8429013746228637 10.6434907977528326 12.4290033539177269
  8.8426204401932491 11.4253593481218800  6.1936885719280026
 29.3770270386564007 10.6353796632317259 12.2133646426973446
 10.2642312526070469  0.3991833824374134  6.4118363031741907
 27.9549510552757567 21.6782441638555810 12.4305050001367814
 27.9547976456003511  0.3907805469641478  6.1936214568903214
 10.2643615387086236 21.6698363822336724 12.2139084505387991
 29.3429703462771840 12.8417088125560230  6.4426334406857455
  8.8811966067669221  9.2347948764389365 12.4185379079757787
  8.8810743620921446 12.8340809430076899  6.2047920199162379
 29.3432207188435150  9.2272533511986623 12.1835978244521534
 10.2304361995958146  1.8073070400553708  6.4425088615936215
 27.9933350488443189 20.2694848144617872 12.4201379229939057
 27.9932390948730685  1.7995060339574533  6.2047096023188013
 10.2306014146420150 20.2617165172474678 12.1832058757428729
 29.0625409617876045  2.5058840088779633  6.0399895977556239
  9.1513489488594288 19.5578529754213726 12.0820554109493088
  9.1512893505862021  2.5111412919507012  6.5453215723476621
 29.0624764816931425 19.5631133695145643 12.5858356576329644
  9.9504021058804710 13.5404766822549032  6.0401052776615289
 28.2639760250455154  8.5233569171756471 12.0820168897626683
 28.2638277539609568 13.5456109450825064  6.5453438123080661
  9.9505697694397899  8.5284385244914134 12.5832166523866533
 20.6141958755409824  0.3014878726623147  6.3758788824583013
 17.6001545517762636 21.7991966791375980 11.9191373116245973
 17.5998234836257907  0.2696854624380562  6.7053601015413875
 20.6144360001149423 21.7676039123060576 12.2470909114177466
  1.5019387124291927 11.3361006177044512  6.3758145929726595
 36.7126698613199309 10.7647758452286926 11.9197213780959732
 36.7122665344623371 11.3040335231024436  6.7046276530770710
  1.5022366119883943 10.7331669178023912 12.2478265258103889
 26.7724345782999578 16.1448842032770017  6.1596467968511712
 11.4711714134602669  5.9269895699814201 12.2965404094856794
 11.4712214534512285 16.1420668408169519  6.3274371803806293
 26.7729644110550744  5.9237675917380637 12.4677014279148555
  7.6599868312362132  5.1104875769364222  6.1599698933192215
 30.5835062485659286 16.9616455270731237 12.2970086630651050
 30.5835182593803907  5.1074524133534416  6.3284594020311200
  7.6605860325180544 16.9584010836854873 12.4660749757223073
 28.2884162947052147  6.4163894076697376  6.1485310522951835
  9.9221848244145718 15.6538514218104492 12.0172345640579188
  9.9216546944053068  6.4151790765749821  6.6083592187291993
 28.2884804144500031 15.6525102420612274 12.4763324985125603
  9.1759357737977290 17.4509566129587945  6.1497369394488972
 29.0342704307085704  4.6193980048082262 12.0164915383589594
 29.0341132400771826 17.4497069019095505  6.6075868405788132
  9.1760975009498669  4.6179877352375787 12.4767216710342765
 36.7318175042888058  8.7211129248953920  6.1235228590457211
  1.4944387760677762 13.3793866949080691 12.1563665287928071
  1.4940822860805520  8.6898696626199001  6.4671175155624887
 36.7320758625946269 13.3484625721254400 12.4972857685162548
 17.6193127541954873 19.7556543098601871  6.1249407223415231
 20.6065611439282783  2.3447758074563181 12.1549240539614019
 20.6062803901883420 19.7242696311579273  6.4666475812051338
 17.6195375024458301  2.3136720986121264 12.4975684600567885
 30.5378564411145383 14.8702807210956056  6.2454488108656614
  7.7117375552401430  7.2148810217675319 12.0582654670098819
  7.7119731234712958 14.8538232849351193  6.5672165651205194
 30.5382606478012164  7.1987127413048038 12.3801632008681999
 11.4253181716626209  3.8359102447801581  6.2457914253008324
 26.8242879632637212 18.2496460077885985 12.0580129141765688
 26.8240844834086047  3.8192845169154173  6.5669162990398977
 11.4258694636360900 18.2331408904028294 12.3770708797314306
 28.8964054593241819 -0.1397197865095403  6.0687104729484505
  9.3122295518502547 22.1939038787408407 12.1725522920934335
  9.3121371818407308 -0.1248803081921675  6.4543331397148274
 28.8964564226297362 22.2088395365785836 12.5557637878373889
  9.7841762769284895 10.8947983884737631  6.0687565504139975
 28.4248664445679609 11.1593671750777741 12.1710935610811664
 28.4246526323275148 10.9095297391816644  6.4548538002423275
  9.7846031203639043 11.1739307160890977 12.5533490298050143
 22.9843992847221230  1.4688513867931441  6.4369490751218770
 15.2315916269785490 20.6102174914412508 11.9900913332300547
 15.2311341840794707  1.4588561498016606  6.6340422026497894
 22.9845916294613204 20.6001493874174102 12.1856952250655137
  3.8721462589736455 12.5035441326401493  6.4366180511684288
 34.3441297672051036  9.5756524716320577 11.9921902550922184
 34.3436913706908911 12.4931695058578942  6.6337291457975738
  3.8723766946724933  9.5656453666744063 12.1866744367507032
 24.5692940012306735 17.6039262525217417  6.1364018240395053
 13.6669521067883402  4.4583081086829983 12.3537448742364582
 13.6669058476727159 17.6108625049136016  6.2685094017691556
 24.5696504181189965  4.4647996714941742 12.4899401166716153
  5.4569538384999650  6.5696644670070290  6.1359655754532971
 32.7793473926697629 15.4930800644946345 12.3534665825745442
 32.7793606444304828  6.5761885927360799  6.2702843049918862
  5.4574529641289278 15.4994911914694615 12.4883385011830015
 28.4319717847061995  9.0531226117874350  6.2440690736694693
  9.7786328121541910 13.0105458557044908 12.0706424495484157
  9.7781503505073957  9.0584713009320943  6.5542867452154558
 28.4322062551539680 13.0158026516675260 12.3803202178511516
  9.3194430768158458 20.0876880116658469  6.2452130833870516
 28.8905301405587984  1.9759654584252320 12.0681802895456833
 28.8904710385387347 20.0929685991851947  6.5533313272502305
  9.3196624010988156  1.9812950457106806 12.3809299442528520
 34.3742121746996006  7.5236524775132363  6.0477832578963060
  3.8492730716196717 14.5670068510450470 12.3149311006146771
  3.8487561131812793  7.5021709768294071  6.3087978232933342
 34.3745420118062697 14.5459475478355493 12.5711818092056369
 15.2618204792956522 18.5582320370861815  6.0494347950798337
 22.9613368989102966  3.5325053579724512 12.3135094138169308
 22.9609562967806369 18.5365591895916104  6.3075256056864220
 15.2619993741933602  3.5110333556230571 12.5727228226154928
 32.7478643261586555 13.4205305414208294  6.2518898412515860
  5.4938950053784801  8.6523578945123809 12.0271964311902479
  5.4939019011482806 13.4166235064076957  6.5978515867078924
 32.7481690850709697  8.6485133689780227 12.3727473009312732
 13.6353051377252630  2.3861935950223137  6.2516606283036875
 24.6063633146939544 19.6869691410677419 12.0252970493338349
 24.6060818146171876  2.3819296006653623  6.5981073068533869
 13.6357330846087343 19.6828680500946867 12.3684387314813424
 28.6494797105118657 15.5013614399144437  6.3986372403337244
  9.5795440325206123  6.5733369510184092 12.3607793063304250
  9.5796486912289431 15.4955334239234119  6.2644424040827484
 28.6498183711220307  6.5675529280614464 12.2278692501668811
  9.5369658486190634  4.4669158990099262  6.3990616113907413
 28.6919259272453111 17.6080108363772254 12.3614152244323794
 28.6918856238163507  4.4609534370388788  6.2641696023718652
  9.5374458773424227 17.6020549979651122 12.2265741474441629
 -0.0029797288169346 10.0161688255752459  6.4364464396795293
 -0.0026423853010503 12.0530224486637341 12.1866246651062102
 19.1092389301348007 21.0507295007729383  6.4369442131241499
 19.1094834475854221  1.0184076745918476 12.1860815387589554
