graphene_opted_init                     
   1.00000000000000     
    19.7339000702000007    0.0000000000000000    0.0000000000000000
     0.0000000000000000   25.6623992919999999    0.0000000000000000
     0.0000000000000000    0.0000000000000000   25.0000000000000000
   C 
   192
Direct
  0.0000000003079478  0.1527588131680001  0.1999725275577589
  0.0000000001537717  0.0972462465423272  0.1999725279081631
  0.0625054970743316  0.0694156286352936  0.1999809440033559
  0.0624970119835424  0.0139148355148795  0.1999474422290462
  0.1250000003635361  0.1527400149513733  0.2000545831860452
  0.1250000005161454  0.0972650473913840  0.2000545867519866
  0.1874945035619474  0.0694156289634746  0.1999809439980118
  0.1875029882461362  0.0139148360188345  0.1999474422515991
 -0.0000000001605030  0.3194168221056832  0.1999927358661994
 -0.0000000003465399  0.2639228711805447  0.1999550452723289
  0.0624970110525980  0.2360894351310310  0.1999474410104975
  0.0625050562158711  0.1805830192499134  0.1999805052706992
  0.1250000000171001  0.3194336713058675  0.2000301272169677
  0.1249999994153086  0.2639435381109623  0.1999856685098776
  0.1875029894713722  0.2360894352718258  0.1999474410477409
  0.1874949435920265  0.1805830185798421  0.1999805053048706
  0.2499999996812428  0.1527588125291671  0.1999725275639911
  0.2499999995214813  0.0972462463964739  0.1999725279199819
  0.3125054963047612  0.0694156285162274  0.1999809439777366
  0.3124970117544821  0.0139148356062334  0.1999474422201531
  0.3750000000592174  0.1527400148117323  0.2000545832257865
  0.3749999999675996  0.0972650480279084  0.2000545867436894
  0.4374945037874098  0.0694156290369083  0.1999809440003974
  0.4375029882170989  0.0139148353471877  0.1999474422803667
  0.2499999997707057  0.3194168215970324  0.1999927358739069
  0.2499999998644433  0.2639228717477523  0.1999550452746621
  0.3124970110617576  0.2360894356544753  0.1999474409862863
  0.3125050566899990  0.1805830184566386  0.1999805052672931
  0.3750000011072724  0.3194336712939390  0.2000301271979510
  0.3750000005432718  0.2639435379163696  0.1999856685434835
  0.4375029889498563  0.2360894356461575  0.1999474410353134
  0.4374949435457392  0.1805830187258646  0.1999805052751188
  0.5000000000086783  0.1527588124697498  0.1999725275523680
  0.4999999997079872  0.0972462469048451  0.1999725279144487
  0.5625054959869468  0.0694156291165243  0.1999809439795837
  0.5624970119446623  0.0139148348554968  0.1999474422323295
  0.6250000001907121  0.1527400153475955  0.2000545832144265
  0.6250000002241433  0.0972650479675007  0.2000545867338216
  0.6874945037920086  0.0694156293620979  0.1999809439996956
  0.6875029877871489  0.0139148351454008  0.1999474422695973
  0.4999999990041248  0.3194168221324143  0.1999927358881646
  0.4999999997792803  0.2639228716756265  0.1999550452673914
  0.5624970108053593  0.2360894353043861  0.1999474409690674
  0.5625050563992671  0.1805830187969948  0.1999805052825350
  0.6250000005057545  0.3194336712734507  0.2000301272138727
  0.6250000002521089  0.2639435379002010  0.1999856685242818
  0.6875029892355553  0.2360894350542877  0.1999474410348034
  0.6874949431813390  0.1805830193174260  0.1999805052762692
  0.7500000002475181  0.1527588131807268  0.1999725275425313
  0.7499999998571414  0.0972462463116537  0.1999725279062660
  0.8125054965188800  0.0694156291923314  0.1999809439810852
  0.8124970124702139  0.0139148348654489  0.1999474422256849
  0.8749999992274129  0.1527400152641570  0.2000545832158157
  0.8749999999985051  0.0972650474722257  0.2000545867221382
  0.9374945030482612  0.0694156289985568  0.1999809440111092
  0.9375029876174301  0.0139148350181913  0.1999474422497582
  0.7499999995842620  0.3194168218347730  0.1999927358907624
  0.7499999999078076  0.2639228713427043  0.1999550452521825
  0.8124970101777691  0.2360894345281281  0.1999474410195724
  0.8125050564583010  0.1805830194515426  0.1999805052580985
  0.8750000002186128  0.3194336717202858  0.2000301272006281
  0.8750000004738662  0.2639435378931026  0.1999856685180660
  0.9375029893599049  0.2360894350850820  0.1999474410283390
  0.9374949438337467  0.1805830196983847  0.1999805052856364
  0.0000000004959943  0.4860774031897923  0.1999550451795819
  0.0000000003659525  0.4305833269758152  0.1999927358132804
  0.0624975136619443  0.4027419958053099  0.2000265986985457
  0.0624975581057957  0.3472581534843093  0.2000265986944140
  0.1249999995603271  0.4860563977753548  0.1999856690394522
  0.1249999998475558  0.4305666282416643  0.2000301272742903
  0.1875024857329215  0.4027419954235582  0.2000265987464500
  0.1875024417539551  0.3472581534312981  0.2000265987769184
  0.0000000003554400  0.6527591742942125  0.1999725264176919
 -0.0000000000167838  0.5972409787992375  0.1999725264194038
  0.0625057643469830  0.5694187841058376  0.1999805072152940
  0.0624974645101481  0.5139112982735289  0.1999474420691271
  0.1250000000306876  0.6527412671317290  0.2000545799503106
  0.1250000005223232  0.5972588859927523  0.2000545798957491
  0.1874942350804449  0.5694187840672623  0.1999805072684871
  0.1875025350378915  0.5139112991355957  0.1999474420775775
  0.2500000003214444  0.4860774039130144  0.1999550451886850
  0.2500000008511984  0.4305833259975321  0.1999927358124376
  0.3124975142187560  0.4027419955489047  0.2000265987014571
  0.3124975579802271  0.3472581543689955  0.2000265987296714
  0.3749999995628957  0.4860563978970647  0.1999856690410511
  0.3749999995603245  0.4305666275219173  0.2000301272740415
  0.4375024862317965  0.4027419947173810  0.2000265987602625
  0.4375024423953265  0.3472581538804227  0.2000265987621668
  0.2500000000573040  0.6527591748821500  0.1999725264389345
  0.2499999996466342  0.5972409784077253  0.1999725263898200
  0.3125057650048167  0.5694187839886868  0.1999805072313074
  0.3124974649533372  0.5139112986672267  0.1999474420702450
  0.3750000003921181  0.6527412670918978  0.2000545799427931
  0.3750000006664430  0.5972588861827876  0.2000545798773690
  0.4374942353863077  0.5694187847656249  0.1999805072644983
  0.4375025354759353  0.5139112988829608  0.1999474420775481
  0.5000000003139528  0.4860774035981603  0.1999550452123566
  0.5000000005017238  0.4305833259308912  0.1999927358243385
  0.5624975137273722  0.4027419955343580  0.2000265987031876
  0.5624975577369955  0.3472581543892855  0.2000265987138397
  0.6249999997321263  0.4860563977682229  0.1999856690583338
  0.6249999991672188  0.4305666277668521  0.2000301272718726
  0.6875024861295576  0.4027419950095578  0.2000265987670604
  0.6875024419783745  0.3472581537603724  0.2000265987750948
  0.4999999995693167  0.6527591747626178  0.1999725264111513
  0.4999999995087872  0.5972409788553612  0.1999725264011789
  0.5625057641344909  0.5694187844029633  0.1999805072067573
  0.5624974645213793  0.5139112983126434  0.1999474420556837
  0.6249999997906917  0.6527412673971816  0.2000545799629695
  0.6249999997426671  0.5972588865685374  0.2000545798880694
  0.6874942357785807  0.5694187844268181  0.1999805072657622
  0.6875025355048654  0.5139112982389690  0.1999474420790404
  0.7500000006251003  0.4860774036651337  0.1999550452023780
  0.7500000004667875  0.4305833264975932  0.1999927358310776
  0.8124975146706235  0.4027419957807289  0.2000265987006437
  0.8124975583425070  0.3472581540302213  0.2000265987315052
  0.8749999993601781  0.4860563971109447  0.1999856690691477
  0.8749999991670162  0.4305666280216569  0.2000301272611772
  0.9375024856947498  0.4027419958186788  0.2000265987552796
  0.9375024416789174  0.3472581531961381  0.2000265987975223
  0.7500000001948638  0.6527591747158249  0.1999725263953009
  0.7500000000608031  0.5972409785503106  0.1999725263899950
  0.8125057648044252  0.5694187842500836  0.1999805072234967
  0.8124974643158174  0.5139112982424379  0.1999474420661668
  0.8749999996484223  0.6527412668712749  0.2000545799680613
  0.8749999998693107  0.5972588865950929  0.2000545798927022
  0.9374942354880547  0.5694187847284721  0.1999805072443001
  0.9375025357290629  0.5139112983243944  0.1999474421132881
 -0.0000000002928753  0.8194168437707170  0.1999927357986211
 -0.0000000002207997  0.7639227381211934  0.1999550451885828
  0.0624974644666773  0.7360888596838026  0.1999474420670919
  0.0625057644383994  0.6805813651934397  0.1999805072254079
  0.1250000001844350  0.8194335423952914  0.2000301271794057
  0.1250000002157233  0.7639437435869947  0.1999856690220315
  0.1875025353181947  0.7360888594199585  0.1999474420734872
  0.1874942353177065  0.6805813656467160  0.1999805072892212
  0.0000000002461686  0.9860780735083485  0.1999550463573936
 -0.0000000002238735  0.9305831447421520  0.1999927361172875
  0.0624975579805484  0.9027420679813138  0.2000265986595801
  0.0624975136759639  0.8472581192275924  0.2000265986662155
  0.1249999998194007  0.9860574060123927  0.1999856684614744
  0.1249999999410169  0.9305662954135281  0.2000301275389685
  0.1875024414573051  0.9027420676835761  0.2000265986966183
  0.1875024855927974  0.8472581194038012  0.2000265987283773
  0.2499999995839843  0.8194168439794990  0.1999927357944330
  0.2499999996451986  0.7639227373170818  0.1999550451968481
  0.3124974646124781  0.7360888591390445  0.1999474420486470
  0.3125057649197451  0.6805813654125905  0.1999805072197419
  0.3750000001852178  0.8194335422975655  0.2000301271850950
  0.3750000004721680  0.7639437436529112  0.1999856689987795
  0.4375025359690600  0.7360888591904525  0.1999474420895922
  0.4374942358870696  0.6805813653295395  0.1999805072773953
  0.2500000004288668  0.9860780743789699  0.1999550463622925
  0.2499999999843961  0.9305831448638738  0.1999927361178960
  0.3124975585506193  0.9027420680630756  0.2000265986443247
  0.3124975145521580  0.8472581193055235  0.2000265986668734
  0.3749999997246218  0.9860574061029289  0.1999856684494893
  0.3749999998525158  0.9305662955939534  0.2000301275301500
  0.4375024423356574  0.9027420683198052  0.2000265987050120
  0.4375024862427845  0.8472581188163689  0.2000265987286833
  0.5000000004501870  0.8194168436340173  0.1999927358080822
  0.5000000000407693  0.7639227377402534  0.1999550451666463
  0.5624974642569683  0.7360888595839864  0.1999474420715148
  0.5625057644512220  0.6805813652861550  0.1999805072380425
  0.6249999994883551  0.8194335422565855  0.2000301271335391
  0.6249999996707611  0.7639437436043131  0.1999856689995450
  0.6875025352407039  0.7360888595850136  0.1999474420858367
  0.6874942348801510  0.6805813652612303  0.1999805072729967
  0.4999999999242958  0.9860780734182937  0.1999550463523465
  0.5000000001445914  0.9305831449649004  0.1999927361099845
  0.5624975574505120  0.9027420677428960  0.2000265986668349
  0.5624975136895689  0.8472581190528091  0.2000265987065100
  0.6249999996604312  0.9860574059112371  0.1999856684738366
  0.6250000000823960  0.9305662956674916  0.2000301275036158
  0.6875024422028574  0.9027420677484408  0.2000265987152023
  0.6875024862749204  0.8472581194408807  0.2000265987720249
  0.7500000004997806  0.8194168439632969  0.1999927358043350
  0.7500000003045796  0.7639227379482058  0.1999550451678748
  0.8124974651653619  0.7360888598033226  0.1999474420594273
  0.8125057650463635  0.6805813653658360  0.1999805072243122
  0.8749999997713542  0.8194335420727872  0.2000301271715984
  0.8749999997484688  0.7639437438498189  0.1999856690100151
  0.9375025350394565  0.7360888602807235  0.1999474420826371
  0.9374942349943377  0.6805813650662393  0.1999805072623616
  0.7500000003482148  0.9860780734635030  0.1999550463396319
  0.7500000002375495  0.9305831445542027  0.1999927361514853
  0.8124975581741579  0.9027420674858297  0.2000265986407362
  0.8124975140753792  0.8472581194549987  0.2000265986879612
  0.8749999998449035  0.9860574056427983  0.1999856684830210
  0.8749999999552776  0.9305662956468465  0.2000301275310099
  0.9375024418643388  0.9027420677752755  0.2000265987117132
  0.9375024860116276  0.8472581192979086  0.2000265987408012
 
  0.00000000E+00  0.00000000E+00  0.00000000E+00
  0.00000000E+00  0.00000000E+00  0.00000000E+00
  0.00000000E+00  0.00000000E+00  0.00000000E+00
  0.00000000E+00  0.00000000E+00  0.00000000E+00
  0.00000000E+00  0.00000000E+00  0.00000000E+00
  0.00000000E+00  0.00000000E+00  0.00000000E+00
  0.00000000E+00  0.00000000E+00  0.00000000E+00
  0.00000000E+00  0.00000000E+00  0.00000000E+00
  0.00000000E+00  0.00000000E+00  0.00000000E+00
  0.00000000E+00  0.00000000E+00  0.00000000E+00
  0.00000000E+00  0.00000000E+00  0.00000000E+00
  0.00000000E+00  0.00000000E+00  0.00000000E+00
  0.00000000E+00  0.00000000E+00  0.00000000E+00
  0.00000000E+00  0.00000000E+00  0.00000000E+00
  0.00000000E+00  0.00000000E+00  0.00000000E+00
  0.00000000E+00  0.00000000E+00  0.00000000E+00
  0.00000000E+00  0.00000000E+00  0.00000000E+00
  0.00000000E+00  0.00000000E+00  0.00000000E+00
  0.00000000E+00  0.00000000E+00  0.00000000E+00
  0.00000000E+00  0.00000000E+00  0.00000000E+00
  0.00000000E+00  0.00000000E+00  0.00000000E+00
  0.00000000E+00  0.00000000E+00  0.00000000E+00
  0.00000000E+00  0.00000000E+00  0.00000000E+00
  0.00000000E+00  0.00000000E+00  0.00000000E+00
  0.00000000E+00  0.00000000E+00  0.00000000E+00
  0.00000000E+00  0.00000000E+00  0.00000000E+00
  0.00000000E+00  0.00000000E+00  0.00000000E+00
  0.00000000E+00  0.00000000E+00  0.00000000E+00
  0.00000000E+00  0.00000000E+00  0.00000000E+00
  0.00000000E+00  0.00000000E+00  0.00000000E+00
  0.00000000E+00  0.00000000E+00  0.00000000E+00
  0.00000000E+00  0.00000000E+00  0.00000000E+00
  0.00000000E+00  0.00000000E+00  0.00000000E+00
  0.00000000E+00  0.00000000E+00  0.00000000E+00
  0.00000000E+00  0.00000000E+00  0.00000000E+00
  0.00000000E+00  0.00000000E+00  0.00000000E+00
  0.00000000E+00  0.00000000E+00  0.00000000E+00
  0.00000000E+00  0.00000000E+00  0.00000000E+00
  0.00000000E+00  0.00000000E+00  0.00000000E+00
  0.00000000E+00  0.00000000E+00  0.00000000E+00
  0.00000000E+00  0.00000000E+00  0.00000000E+00
  0.00000000E+00  0.00000000E+00  0.00000000E+00
  0.00000000E+00  0.00000000E+00  0.00000000E+00
  0.00000000E+00  0.00000000E+00  0.00000000E+00
  0.00000000E+00  0.00000000E+00  0.00000000E+00
  0.00000000E+00  0.00000000E+00  0.00000000E+00
  0.00000000E+00  0.00000000E+00  0.00000000E+00
  0.00000000E+00  0.00000000E+00  0.00000000E+00
  0.00000000E+00  0.00000000E+00  0.00000000E+00
  0.00000000E+00  0.00000000E+00  0.00000000E+00
  0.00000000E+00  0.00000000E+00  0.00000000E+00
  0.00000000E+00  0.00000000E+00  0.00000000E+00
  0.00000000E+00  0.00000000E+00  0.00000000E+00
  0.00000000E+00  0.00000000E+00  0.00000000E+00
  0.00000000E+00  0.00000000E+00  0.00000000E+00
  0.00000000E+00  0.00000000E+00  0.00000000E+00
  0.00000000E+00  0.00000000E+00  0.00000000E+00
  0.00000000E+00  0.00000000E+00  0.00000000E+00
  0.00000000E+00  0.00000000E+00  0.00000000E+00
  0.00000000E+00  0.00000000E+00  0.00000000E+00
  0.00000000E+00  0.00000000E+00  0.00000000E+00
  0.00000000E+00  0.00000000E+00  0.00000000E+00
  0.00000000E+00  0.00000000E+00  0.00000000E+00
  0.00000000E+00  0.00000000E+00  0.00000000E+00
  0.00000000E+00  0.00000000E+00  0.00000000E+00
  0.00000000E+00  0.00000000E+00  0.00000000E+00
  0.00000000E+00  0.00000000E+00  0.00000000E+00
  0.00000000E+00  0.00000000E+00  0.00000000E+00
  0.00000000E+00  0.00000000E+00  0.00000000E+00
  0.00000000E+00  0.00000000E+00  0.00000000E+00
  0.00000000E+00  0.00000000E+00  0.00000000E+00
  0.00000000E+00  0.00000000E+00  0.00000000E+00
  0.00000000E+00  0.00000000E+00  0.00000000E+00
  0.00000000E+00  0.00000000E+00  0.00000000E+00
  0.00000000E+00  0.00000000E+00  0.00000000E+00
  0.00000000E+00  0.00000000E+00  0.00000000E+00
  0.00000000E+00  0.00000000E+00  0.00000000E+00
  0.00000000E+00  0.00000000E+00  0.00000000E+00
  0.00000000E+00  0.00000000E+00  0.00000000E+00
  0.00000000E+00  0.00000000E+00  0.00000000E+00
  0.00000000E+00  0.00000000E+00  0.00000000E+00
  0.00000000E+00  0.00000000E+00  0.00000000E+00
  0.00000000E+00  0.00000000E+00  0.00000000E+00
  0.00000000E+00  0.00000000E+00  0.00000000E+00
  0.00000000E+00  0.00000000E+00  0.00000000E+00
  0.00000000E+00  0.00000000E+00  0.00000000E+00
  0.00000000E+00  0.00000000E+00  0.00000000E+00
  0.00000000E+00  0.00000000E+00  0.00000000E+00
  0.00000000E+00  0.00000000E+00  0.00000000E+00
  0.00000000E+00  0.00000000E+00  0.00000000E+00
  0.00000000E+00  0.00000000E+00  0.00000000E+00
  0.00000000E+00  0.00000000E+00  0.00000000E+00
  0.00000000E+00  0.00000000E+00  0.00000000E+00
  0.00000000E+00  0.00000000E+00  0.00000000E+00
  0.00000000E+00  0.00000000E+00  0.00000000E+00
  0.00000000E+00  0.00000000E+00  0.00000000E+00
  0.00000000E+00  0.00000000E+00  0.00000000E+00
  0.00000000E+00  0.00000000E+00  0.00000000E+00
  0.00000000E+00  0.00000000E+00  0.00000000E+00
  0.00000000E+00  0.00000000E+00  0.00000000E+00
  0.00000000E+00  0.00000000E+00  0.00000000E+00
  0.00000000E+00  0.00000000E+00  0.00000000E+00
  0.00000000E+00  0.00000000E+00  0.00000000E+00
  0.00000000E+00  0.00000000E+00  0.00000000E+00
  0.00000000E+00  0.00000000E+00  0.00000000E+00
  0.00000000E+00  0.00000000E+00  0.00000000E+00
  0.00000000E+00  0.00000000E+00  0.00000000E+00
  0.00000000E+00  0.00000000E+00  0.00000000E+00
  0.00000000E+00  0.00000000E+00  0.00000000E+00
  0.00000000E+00  0.00000000E+00  0.00000000E+00
  0.00000000E+00  0.00000000E+00  0.00000000E+00
  0.00000000E+00  0.00000000E+00  0.00000000E+00
  0.00000000E+00  0.00000000E+00  0.00000000E+00
  0.00000000E+00  0.00000000E+00  0.00000000E+00
  0.00000000E+00  0.00000000E+00  0.00000000E+00
  0.00000000E+00  0.00000000E+00  0.00000000E+00
  0.00000000E+00  0.00000000E+00  0.00000000E+00
  0.00000000E+00  0.00000000E+00  0.00000000E+00
  0.00000000E+00  0.00000000E+00  0.00000000E+00
  0.00000000E+00  0.00000000E+00  0.00000000E+00
  0.00000000E+00  0.00000000E+00  0.00000000E+00
  0.00000000E+00  0.00000000E+00  0.00000000E+00
  0.00000000E+00  0.00000000E+00  0.00000000E+00
  0.00000000E+00  0.00000000E+00  0.00000000E+00
  0.00000000E+00  0.00000000E+00  0.00000000E+00
  0.00000000E+00  0.00000000E+00  0.00000000E+00
  0.00000000E+00  0.00000000E+00  0.00000000E+00
  0.00000000E+00  0.00000000E+00  0.00000000E+00
  0.00000000E+00  0.00000000E+00  0.00000000E+00
  0.00000000E+00  0.00000000E+00  0.00000000E+00
  0.00000000E+00  0.00000000E+00  0.00000000E+00
  0.00000000E+00  0.00000000E+00  0.00000000E+00
  0.00000000E+00  0.00000000E+00  0.00000000E+00
  0.00000000E+00  0.00000000E+00  0.00000000E+00
  0.00000000E+00  0.00000000E+00  0.00000000E+00
  0.00000000E+00  0.00000000E+00  0.00000000E+00
  0.00000000E+00  0.00000000E+00  0.00000000E+00
  0.00000000E+00  0.00000000E+00  0.00000000E+00
  0.00000000E+00  0.00000000E+00  0.00000000E+00
  0.00000000E+00  0.00000000E+00  0.00000000E+00
  0.00000000E+00  0.00000000E+00  0.00000000E+00
  0.00000000E+00  0.00000000E+00  0.00000000E+00
  0.00000000E+00  0.00000000E+00  0.00000000E+00
  0.00000000E+00  0.00000000E+00  0.00000000E+00
  0.00000000E+00  0.00000000E+00  0.00000000E+00
  0.00000000E+00  0.00000000E+00  0.00000000E+00
  0.00000000E+00  0.00000000E+00  0.00000000E+00
  0.00000000E+00  0.00000000E+00  0.00000000E+00
  0.00000000E+00  0.00000000E+00  0.00000000E+00
  0.00000000E+00  0.00000000E+00  0.00000000E+00
  0.00000000E+00  0.00000000E+00  0.00000000E+00
  0.00000000E+00  0.00000000E+00  0.00000000E+00
  0.00000000E+00  0.00000000E+00  0.00000000E+00
  0.00000000E+00  0.00000000E+00  0.00000000E+00
  0.00000000E+00  0.00000000E+00  0.00000000E+00
  0.00000000E+00  0.00000000E+00  0.00000000E+00
  0.00000000E+00  0.00000000E+00  0.00000000E+00
  0.00000000E+00  0.00000000E+00  0.00000000E+00
  0.00000000E+00  0.00000000E+00  0.00000000E+00
  0.00000000E+00  0.00000000E+00  0.00000000E+00
  0.00000000E+00  0.00000000E+00  0.00000000E+00
  0.00000000E+00  0.00000000E+00  0.00000000E+00
  0.00000000E+00  0.00000000E+00  0.00000000E+00
  0.00000000E+00  0.00000000E+00  0.00000000E+00
  0.00000000E+00  0.00000000E+00  0.00000000E+00
  0.00000000E+00  0.00000000E+00  0.00000000E+00
  0.00000000E+00  0.00000000E+00  0.00000000E+00
  0.00000000E+00  0.00000000E+00  0.00000000E+00
  0.00000000E+00  0.00000000E+00  0.00000000E+00
  0.00000000E+00  0.00000000E+00  0.00000000E+00
  0.00000000E+00  0.00000000E+00  0.00000000E+00
  0.00000000E+00  0.00000000E+00  0.00000000E+00
  0.00000000E+00  0.00000000E+00  0.00000000E+00
  0.00000000E+00  0.00000000E+00  0.00000000E+00
  0.00000000E+00  0.00000000E+00  0.00000000E+00
  0.00000000E+00  0.00000000E+00  0.00000000E+00
  0.00000000E+00  0.00000000E+00  0.00000000E+00
  0.00000000E+00  0.00000000E+00  0.00000000E+00
  0.00000000E+00  0.00000000E+00  0.00000000E+00
  0.00000000E+00  0.00000000E+00  0.00000000E+00
  0.00000000E+00  0.00000000E+00  0.00000000E+00
  0.00000000E+00  0.00000000E+00  0.00000000E+00
  0.00000000E+00  0.00000000E+00  0.00000000E+00
  0.00000000E+00  0.00000000E+00  0.00000000E+00
  0.00000000E+00  0.00000000E+00  0.00000000E+00
  0.00000000E+00  0.00000000E+00  0.00000000E+00
  0.00000000E+00  0.00000000E+00  0.00000000E+00
  0.00000000E+00  0.00000000E+00  0.00000000E+00
  0.00000000E+00  0.00000000E+00  0.00000000E+00
  0.00000000E+00  0.00000000E+00  0.00000000E+00
  0.00000000E+00  0.00000000E+00  0.00000000E+00
  0.00000000E+00  0.00000000E+00  0.00000000E+00
