C  O  H  Cu
 1.0000000000000000
    37.8200005502201293    0.0000000000000000    0.0000000000000000
     0.0000000000000000   21.8353985625285958    0.0000000000000000
     0.0000000000000000    0.0000000000000000   43.2000007628999967
 C   O   H   Cu 
 144  48  48  12
Cartesian
 23.9307808031630671 20.2700615228035907  6.6066497746244170
 13.8879524712548346  1.5607602816640362 12.0117146600694813
 13.8879457380690141 20.2746458127279112  6.6122328293553441
 23.9307711018638223  1.5653369524908110 12.0173002046547328
  5.0207811906393882  9.3523638982650272  6.6066521000044913
 32.7979431846115190 12.4784514839935845 12.0117159040890158
 32.7979530128465839  9.3569401476225860  6.6122288748656786
  5.0207756536034047 12.4830302893972309 12.0172996608228821
 25.2920763906807231  1.9934318374052193  6.5275920389722293
 12.5266291637609921 19.8401358157715855 12.0769246328827631
 12.5266183412892236  1.9952631219068395  6.5470163037653863
 25.2920789858200372 19.8419635881694205 12.0963698261468853
  6.3820737076022107 12.9111340278555975  6.5275822803742534
 31.4366170766115793  8.9224352603260524 12.0769377595883611
 31.4366219047935687 12.9129629853568062  6.5470174608056118
  6.3820765829000381  8.9242610121513497 12.0963812929228904
 26.5075236735651032  2.6926225929653484  6.5353399620294272
 11.3099692116947512 19.1438076399706283 12.0850811169299917
 11.3099686280764207  2.6915819938050087  6.5388620933044290
 26.5075215310346373 19.1427800141477462 12.0886167664352637
  7.5975246766709752 13.6103242614693780  6.5353301714659127
 30.2199746604439525  8.2261222738455952 12.0850879548871042
 30.2199702248510462 13.6092794916129876  6.5388647750122901
  7.5975191716237527  8.2250770815377194 12.0886288951263889
 26.4516913232433204 20.2127579540540694  6.5953495012432457
 11.3705886391646978  1.6202808790039314 12.0343489391800045
 11.3705897550743327 20.2151236190242081  6.5896123785808296
 26.4516870676027231  1.6226482238187168 12.0285831773391045
  7.5416821588731926  9.2950593994829802  6.5953499516203378
 30.2805929483558174 12.5379780131291518 12.0343430018629167
 30.2805982810312813  9.2974183999944309  6.5895988867549704
  7.5416806399432712 12.5403408579965010 12.0285759773430065
 22.6918466172382232 19.6127606165026620  6.6774987495745348
 15.1234315404889514  2.2170327523848541 11.8882074460746257
 15.1234350495110963 19.6183648065589331  6.7357497784990272
 22.6918499050104820  2.2226235918419270 11.9464481094928434
  3.7818508985542909  8.6950729527113086  6.6775117252258891
 34.0334423852345012 13.1347339492601076 11.8881951464987274
 34.0334374836678606  8.7006661009313557  6.7357396519270853
  3.7818447414042642 13.1403309682784393 11.9464508263841527
 21.4817410898180512 20.3180263091500457  6.7499152221790650
 16.3338353979765500  1.5101355328028883 11.8422207844123708
 16.3338332388905769 20.3252728309139137  6.7817313818679210
 21.4817474988787964  1.5173757378900048 11.8740391862811823
  2.5717450121844978  9.4003229239460655  6.7499066900775526
 35.2438328573460780 12.4278235100327361 11.8422157867345650
 35.2438357152998591  9.4075676222403430  6.7817279777351391
  2.5717419094468728 12.4350747858254582 11.8740409518914696
 25.2426972731243531  0.5897449340687713  6.5536370083004911
 12.5781018181202509 21.2438033471435155 12.0824455498958088
 12.5780995899728065  0.5916004413741339  6.5414939462637891
 25.2426871953672993 21.2456569104538993 12.0703266659153794
  6.3326921550973161 11.5074433668581406  6.5536271607745453
 31.4881011410085954 10.3261036464291909 12.0824577633838164
 31.4881038897716472 11.5092956825827688  6.5414971779260718
  6.3326867080630356 10.3279543673075995 12.0703296586660365
 27.6403844547308282 19.4678922991491916  6.6466644062429321
 10.1830497806503573  2.3652668309625615 11.9550141105884329
 10.1830432681668874 19.4701279875551094  6.6689461569643091
 27.6404173028790829  2.3675055044940838 11.9772653871065042
  8.7304269296797123  8.5502046412860544  6.6466733245680141
 29.0930489118576858 13.2829692647230306 11.9550052021982456
 29.0930449570625242  8.5524372678323850  6.6689441619517700
  8.7304050039085190 13.2852060780320294 11.9772701451620947
 27.6393065889868126 18.0660726227718662  6.6369431746162553
 10.1866541484278770  3.7658903412887117 12.0035981993893355
 10.1866655551195215 18.0695095186424268  6.6203519409130447
 27.6392879052016198  3.7693244747790726 11.9870197416451507
  8.7292841449103094  7.1483746375227728  6.6369282505741642
 29.0966586802852341 14.6835888770547864 12.0036022928232349
 29.0966608110047673  7.1518025662714395  6.6203521626356769
  8.7292988741701407 14.6870244328654991 11.9870205987348708
 32.7693545646801070 10.8068507752547802  6.5714566945323671
  5.0518913058603960 11.0316450105508590 12.0242180925816662
  5.0518908961432905 10.8037585889106218  6.5997451551899902
 32.7693521118921325 11.0285446549617880 12.0524944474777342
 13.8593495775548394 -0.1108460857498133  6.5714555072708274
 23.9618968701181885 21.9493401487251951 12.0242110247148979
 23.9618934619625392 -0.1139521030125361  6.5997402593963956
 13.8593552698119939 21.9462388085551510 12.0524911805612565
 31.5602656510380655  7.1951043832252433  6.4590810675052879
  6.2647882586084283 14.6449519252537605 12.1074280160759873
  6.2647804383337808  7.1904446602195380  6.5165152259615367
 31.5602538906981849 14.6402876139786713 12.1648520176925992
 12.6502540387810516 18.1128124424948247  6.4590915696021769
 25.1747826083344783  3.7272574557996192 12.1074381048048512
 25.1747859505088201 18.1081451920359875  6.5165063665658494
 12.6502527478558289  3.7225898741034613 12.1648693425060106
 30.3731572740891913  6.4460068913082011  6.4860356805693842
  7.4521687933335077 15.3931837799159705 12.0923044087995226
  7.4521649625678323  6.4422177383075026  6.5316744866374208
 30.3731559533987792 15.3893849422631561 12.1379213481823687
 11.4631596178491080 17.3637130351231512  6.4860369247479515
 26.3621709857360180  4.4754834350204140 12.0923053789576240
 26.3621489561720495 17.3599141525136353  6.5316715785235271
 11.4631571438683650  4.4716879241126781 12.1379199911383751
 30.2470665454135386 10.7574720484221853  6.5364303774421284
  7.5747374350944430 11.0785752234696151 12.0575077733673144
  7.5747391335718168 10.7568227849638038  6.5664482483658961
 30.2470659061039768 11.0779247069611060 12.0875136700712957
 11.3370737889227460 -0.1602289647355734  6.5364414264188282
 26.4847326371785918 21.9962802671409641 12.0575043574033991
 26.4847323804020931 -0.1608837290499920  6.5664414452612840
 11.3370776241461808 21.9956247257344195 12.0875082966016230
 33.9822422272388565 11.5181970208780431  6.5855035734005245
  3.8382944368525491 10.3209173315268394 11.9756133028703378
  3.8382951121175686 11.5144759065209623  6.6483405518932530
 33.9822411112290510 10.3171965369695453 12.0384636106469038
 15.0722422439295141  0.6005054211808331  6.5854889601411379
 22.7482956912081136 21.2386275679233769 11.9756149043641837
 22.7482925689501130  0.5967812226446071  6.6483414319972942
 15.0722435656434008 21.2349095758886541 12.0384452915609970
 35.2203450379738641 10.8689289001641107  6.6966919903722397
  2.5996559728769992 10.9738349491555702 11.9169656821813135
  2.5996598325475531 10.8615680213569199  6.7069901540043269
 35.2203624672111744 10.9664691391297335 11.9272636997624133
 16.3103489706697360 -0.0487726467472785  6.6966846473163368
 21.5096665307398354 21.8915241211812379 11.9169615641367628
 21.5096580009968186 -0.0561334032173538  6.7069925054640454
 16.3103380820676520 21.8841679244334024 11.9272620414488006
 31.5509592199739153  8.5980606502179739  6.5453257087483072
  6.2710697061538205 13.2408807764784413 12.0560272109330651
  6.2710760704519410  8.5945190264791336  6.5679279655033849
 31.5509598924351486 13.2373390890486942 12.0786174540802804
 12.6409612823501938 19.5157592037239880  6.5453378787490628
 25.1810715462586288  2.3231827215137049 12.0560323824612912
 25.1810673324794756 19.5122110242157092  6.5679088421385661
 12.6409589999293992  2.3196352622722434 12.0786194679422909
 29.0247258239278061 11.4507360390855144  6.4799015951356607
  8.7957909451753569 10.3819896672608394 12.0885059111899942
  8.7958002428058322 11.4534120979451366  6.5354523283856603
 29.0247267150848636 10.3846643099123117 12.1440366397257566
 10.1147178278859293  0.5330357385207578  6.4799166986085144
 27.7058072733658456 21.2996930651902190 12.0884996818430182
 27.7058075769287804  0.5357031937588342  6.5354602177885557
 10.1147207762151936 21.3023609960629159 12.1440338764383817
 28.9670338497599964 12.8528997640692300  6.4971554687006217
  8.8506294069106435  8.9802851628466414 12.1137540597750011
  8.8506273524690258 12.8551143635390179  6.5102011061280196
 28.9670288889160972  8.9824920866908862 12.1267911226780107
 10.0570352165746719  1.9352053584866142  6.4971667362132388
 27.7606294205438076 19.8979873402373997 12.1137421317889444
 27.7606261669643679  1.9374176508896588  6.5102114825274446
 10.0570398064723783 19.9001956854214619 12.1267855577286756
 28.8599208902574809  2.6343819566716471  6.4742120020891845
  8.9566438975058755 19.2047205259444418 12.1396545262116700
  8.9566412037189025  2.6306778220377049  6.4843020253520818
 28.8599177186984726 19.2010188902154013 12.1497393312602302
  9.9499169963893337 13.5520825883620173  6.4742016924172727
 27.8666411226961372  8.2870259631002572 12.1396595238382314
 27.8666405271658988 13.5483745284896528  6.4842888858653360
  9.9499162872157001  8.2833123852145167 12.1497532894652593
 20.3569685926527342  0.5503051221165997  6.7418051886671950
 17.4630223758621206 21.2780104893586319 11.8870524536143787
 17.4630168910603736  0.5573910442774431  6.7368952628516707
 20.3569596950284470 21.2850935827752359 11.8821686641603073
  1.4469583827915635 11.4680049394447323  6.7417820925075311
 36.3730100097428704 10.3603144252045389 11.8870612232331876
 36.3730202620801109 11.4750883894691604  6.7369080506153587
  1.4469586968284434 10.3673943796615671 11.8821662679936217
 26.4182714567970436 16.0612987121940627  6.4662114927958614
 11.4039391779336956  5.7691378168819725 12.2181467816352036
 11.4039450068164463 16.0662557632351479  6.4058211444979403
 26.4182762048218223  5.7741008532808138 12.1577446008928707
  7.5082710145701794  5.1436026209946997  6.4661975183129190
 30.3139456697534158 16.6868370264916734 12.2181336222799004
 30.3139471251315626  5.1485587871042426  6.4058139596113630
  7.5082746940989153 16.6917991620656778 12.1577249280673279
 28.0260247462854828  6.4154220329147158  6.6705235032799530
  9.8012674404802667 15.4220572875239519 11.9318558420826051
  9.8012606098439647  6.4133320946895260  6.6921301304873193
 28.0260145273602603 15.4199754631488375 11.9534499608901594
  9.1160145926004059 17.3331215746202822  6.6705033583321933
 28.7112656418289625  4.5043610414590338 11.9318408778191891
 28.7112509569427772 17.3310342742384904  6.6921674915803937
  9.1160124270623228  4.5022728584376122 11.9534409413011833
 36.4135834407634320  8.8515015404567166  6.8976180458776035
  1.4006322080350679 12.9927003820259728 11.7752275089217378
  1.4006317811888167  8.8426977273982210  6.8487234990996235
 36.4135843262530301 12.9838937324662833 11.7263219780516081
 17.5035781155385379 19.7692032923715786  6.8976230826969251
 20.3106299337702971  2.0750005823660809 11.7752330339834064
 20.3106305924058326 19.7603996559214998  6.8487194703012451
 17.5035814334998108  2.0661996851400639 11.7263366278470187
 30.1178307726036572 14.9054220789783631  6.5675211952004151
  7.6991399263338831  6.9284945777245683 12.0663237282542148
  7.6991412886493489 14.9069019577519182  6.5576305932367758
 30.1178309363840597  6.9299733570635187 12.0564430170710111
 11.2078332551807698  3.9877248684191748  6.5675114429456070
 26.6091434726446536 17.8461941729178477 12.0663170258784156
 26.6091434888218323  3.9891991185777669  6.5576463372304126
 11.2078362039063695 17.8476773743266648 12.0564364927521854
 28.6509999831466651 -0.0026887019528919  6.5352471197684858
  9.1711686851182019 21.8423921632193334 12.1938652800961744
  9.1711618104055077 -0.0069959820170205  6.4300877729235619
 28.6509959151942795 21.8380897923486970 12.0887097931406196
  9.7410015247984596 10.9150097131007389  6.5352415369811352
 28.0811634060513775 10.9246974002276414 12.1938720173852992
 28.0811647187666438 10.9106988519386512  6.4300579024815328
  9.7410056997540906 10.9203861550037402 12.0887106092323773
 22.7379852617358651  1.6849010127696984  6.6519475630121017
 15.0756289864451460 20.1485181940130573 12.0974013711914026
 15.0756267069883894  1.6868839485015044  6.5265361916357039
 22.7379810431129989 20.1504885210101747 11.9720095834912819
  3.8279720519698817 12.6026076705289984  6.6519472261735011
 33.9856326121964543  9.2308136434673678 12.0974242825645284
 33.9856276053502313 12.6045829591890577  6.5265583253613331
  3.8279696026411849  9.2327946633455014 11.9720146719060114
 24.2353845282969615 17.5627667758300667  6.4573206628845741
 13.5882866275311684  4.2657911828763595 12.2652494514536041
 13.5882959301704993 17.5696104991676094  6.3587284123674195
 24.2354017484184787  4.2726367396887586 12.1666126972538233
  5.3253924591156698  6.6450658283228856  6.4573360244884812
 32.4982926641536665 15.1834896638921251 12.2652252520902909
 32.4982946332705254  6.6519134761095051  6.3587065223231090
  5.3253967991962448 15.1903305493745631 12.1665672119314898
 28.1323727006468935  9.0544255467031487  6.7609599646472764
  9.6926042035022295 12.7816600564190690 11.9354553410866746
  9.6926178626541173  9.0537315167077068  6.6884743355210121
 28.1323682853763515 12.7809666541655620 11.8629920213938593
  9.2223671603327180 19.9721283820191502  6.7609614435162282
 28.6026095504899978  1.8639644023100075 11.9354599458904627
 28.6026166376843847 19.9714353639961466  6.6884727208790249
  9.2223649644098717  1.8632672750975561 11.8629920277259853
 34.0769636395408568  7.6164189116263943  6.8183350902091089
  3.7325433561039891 14.2266726175291947 11.9220102413620541
  3.7325472857659374  7.6087269693121025  6.7019554502027976
 34.0769657595914595 14.2189757664339709 11.8055955324297628
 15.1669617688648017 18.5341239558948772  6.8183488304683229
 22.6425451933664448  3.3089727349535099 11.9220021128728231
 22.6425292255640791 18.5264270259288040  6.7019248261110196
 15.1669606994283761  3.3012848247076354 11.8056109906006323
 32.3523153800887542 13.4994852279842306  6.5764402303811407
  5.4654246689485442  8.3388516943696427 12.1080953205658339
  5.4654275176196467 13.4965467595274493  6.5158711777558196
 32.3523136631894346  8.3359107755568314 12.0475237315577033
 13.4423152959733283  2.5817868054895512  6.5764364262813553
 24.3754263111555325 19.2565523926072188 12.1080812616010220
 24.3754345351427339  2.5788559191800711  6.5158789607560870
 13.4423200794875299 19.2536143851434147 12.0475013752617350
 28.2631171888000381 15.4517116107021444  6.5546482048023451
  9.5570551297752111  6.3801936653447529 12.0987158019246355
  9.5570665263828296 15.4552019450771159  6.5252433521291779
 28.2631165797947084  6.3836854239297649 12.0693218754768523
  9.3531179557426238  4.5340156337090889  6.5546314170284106
 28.4670617851057024 17.2978983777229267 12.0987094216731261
 28.4670642471098816  4.5375015792663991  6.5252515934045112
  9.3531210210369959 17.3013840083558428 12.0693133834118349
 -0.0015108633134378 10.1800954656623102  6.8347542804584975
 -0.0015098904608771 11.6553042608433870 11.7891965981564883
 18.9084908753287060 21.0978011059441783  6.8347586438710994
 18.9084933019728254  0.7376041719292040 11.7892025596516650
