BP_opted_init                           
   1.00000000000000     
    26.3638992310000013    0.0000000000000000    0.0000000000000000
     0.0000000000000000   27.2618007660000004    0.0000000000000000
     0.0000000000000000    0.0000000000000000   27.0834999084000003
   P 
   192
Direct
 -0.0000000004327976  0.1027194566354495  0.1835102432907615
  0.0624999998323328  0.0482051731413197  0.1835360676817980
 -0.0000000006232087  0.1315325189644033  0.2615400323912808
  0.0624999998455984  0.0193892499640403  0.2615543730855228
  0.1250000003526097  0.1027194569678264  0.1835102428400855
  0.1875000004625030  0.0482051730820844  0.1835360677673660
  0.1250000005715899  0.1315325193031425  0.2615400328126283
  0.1875000004627676  0.0193892495872428  0.2615543728926819
  0.2500000002397614  0.1027194569001910  0.1835102430113150
  0.3124999999840561  0.0482051730263902  0.1835360678364096
  0.2500000001122956  0.1315325197203358  0.2615400325795459
  0.3125000000200079  0.0193892490849758  0.2615543726316353
  0.3749999998669544  0.1027194569546220  0.1835102430070319
  0.4374999997475826  0.0482051730613206  0.1835360672458580
  0.3749999998240874  0.1315325192233243  0.2615400326255009
  0.4374999997644747  0.0193892496844938  0.2615543732932756
  0.5000000000649946  0.1027194574083459  0.1835102430305317
  0.5625000002070037  0.0482051736692252  0.1835360674244274
  0.5000000000668535  0.1315325194124276  0.2615400324304723
  0.5625000001445979  0.0193892504015490  0.2615543734883657
  0.6250000003411670  0.1027194569318258  0.1835102432036790
  0.6875000001839084  0.0482051738199349  0.1835360677217897
  0.6250000003886675  0.1315325193990617  0.2615400321777899
  0.6875000002255534  0.0193892502355342  0.2615543730053883
  0.7499999997279634  0.1027194570862995  0.1835102430012346
  0.8124999998830403  0.0482051729787650  0.1835360674566602
  0.7499999999793886  0.1315325193396479  0.2615400323918403
  0.8124999998896235  0.0193892494380245  0.2615543728498789
  0.8749999999078055  0.1027194570811749  0.1835102430783758
  0.9374999996417531  0.0482051734066166  0.1835360679207929
  0.8749999996694157  0.1315325192269950  0.2615400323708456
  0.9374999996508468  0.0193892499266607  0.2615543728883397
  0.0000000001300434  0.2693886183458292  0.1835105325215590
  0.0625000000099179  0.2148743350708128  0.1835365835130762
  0.0000000001267945  0.2982021961567412  0.2615396496783384
  0.0625000000377823  0.1860553595506772  0.2615528112479948
  0.1250000000505020  0.2693886184909778  0.1835105329982623
  0.1875000001855216  0.2148743344302998  0.1835365835258754
  0.1250000002014574  0.2982021963909022  0.2615396491329264
  0.1875000003281763  0.1860553584338194  0.2615528107381546
  0.2499999999907475  0.2693886185429432  0.1835105326634753
  0.3124999998199464  0.2148743342612087  0.1835365834622082
  0.2499999998665150  0.2982021959915658  0.2615396492883393
  0.3124999997673094  0.1860553582160264  0.2615528107771724
  0.3749999999625643  0.2693886187953770  0.1835105323131793
  0.4375000001126300  0.2148743341369991  0.1835365831534838
  0.3750000000064799  0.2982021963960331  0.2615396491429997
  0.4375000002077491  0.1860553584089567  0.2615528111546855
  0.4999999999287631  0.2693886185728239  0.1835105326037531
  0.5625000000948419  0.2148743339363820  0.1835365828082354
  0.4999999998983451  0.2982021960598925  0.2615396490261093
  0.5625000001607532  0.1860553584977572  0.2615528116272647
  0.6250000001672497  0.2693886182508163  0.1835105328582209
  0.6875000001236699  0.2148743342538397  0.1835365831633277
  0.6250000000925076  0.2982021957996508  0.2615396490259841
  0.6874999999145559  0.1860553581517762  0.2615528112668161
  0.7499999999920792  0.2693886180321875  0.1835105326634744
  0.8124999997520366  0.2148743341591644  0.1835365831094783
  0.7500000000314201  0.2982021958121402  0.2615396492870241
  0.8124999998127317  0.1860553579140104  0.2615528109730934
  0.8749999998935329  0.2693886182758796  0.1835105322826561
  0.9374999998279391  0.2148743342034327  0.1835365830842396
  0.8749999998356228  0.2982021959155465  0.2615396498918592
  0.9374999997689221  0.1860553585401280  0.2615528112931639
  0.0000000001552352  0.4360604318053325  0.1835097917650629
  0.0624999999870994  0.3815483425702768  0.1835356712189000
  0.0000000000558865  0.4648689525624980  0.2615411853364862
  0.0625000000799637  0.3527253662139591  0.2615530596923661
  0.1250000001253562  0.4360604321467048  0.1835097914106023
  0.1874999999247531  0.3815483424255871  0.1835356713839510
  0.1250000000431752  0.4648689525035750  0.2615411853940610
  0.1874999996514555  0.3527253657659267  0.2615530590673067
  0.2499999998250910  0.4360604319249879  0.1835097906853004
  0.3124999998133382  0.3815483422329833  0.1835356712205612
  0.2499999997297452  0.4648689523060207  0.2615411861683447
  0.3124999999706494  0.3527253658367249  0.2615530591015655
  0.3750000001035615  0.4360604321135019  0.1835097904817765
  0.4375000001994199  0.3815483426500256  0.1835356713567139
  0.3750000000188725  0.4648689525249606  0.2615411861859431
  0.4374999999592887  0.3527253659236507  0.2615530591524913
  0.4999999998091906  0.4360604315815226  0.1835097913604373
  0.5624999998079769  0.3815483427027774  0.1835356714113681
  0.4999999998373053  0.4648689525409166  0.2615411855614709
  0.5624999999110541  0.3527253661956601  0.2615530593112211
  0.6249999997910969  0.4360604317104577  0.1835097912568803
  0.6874999999011723  0.3815483422214496  0.1835356713607908
  0.6249999997971882  0.4648689523350164  0.2615411858149932
  0.6874999999956961  0.3527253660030728  0.2615530595247536
  0.7500000001275134  0.4360604318365683  0.1835097909402480
  0.8125000000118433  0.3815483424440470  0.1835356721640124
  0.7500000001338255  0.4648689521547179  0.2615411861526686
  0.8124999999656793  0.3527253660287357  0.2615530588371239
  0.8750000001221468  0.4360604317905175  0.1835097910767990
  0.9375000002500337  0.3815483427622946  0.1835356717517788
  0.8750000002543753  0.4648689521701664  0.2615411859999472
  0.9375000004419115  0.3527253664265877  0.2615530592536950
  0.0000000004642122  0.6027194572444106  0.1835102436026927
  0.0625000000338134  0.5482051735577492  0.1835360676592865
  0.0000000005739530  0.6315325199180701  0.2615400319794531
  0.0624999999782899  0.5193892495243326  0.2615543726288486
  0.1249999998414091  0.6027194571665984  0.1835102433366766
  0.1874999999223157  0.5482051733670638  0.1835360676990726
  0.1249999998035478  0.6315325199806403  0.2615400324077229
  0.1874999998454471  0.5193892495327163  0.2615543726206161
  0.2500000000682359  0.6027194568997367  0.1835102431824448
  0.3124999999146239  0.5482051738261652  0.1835360675716839
  0.2499999997046565  0.6315325192664601  0.2615400326435448
  0.3124999999616839  0.5193892499585175  0.2615543729530723
  0.3750000000023100  0.6027194566839119  0.1835102433954527
  0.4374999998446767  0.5482051737910764  0.1835360678523930
  0.3749999998530503  0.6315325189836425  0.2615400323105300
  0.4375000000834617  0.5193892497230372  0.2615543727587575
  0.4999999998661780  0.6027194569945469  0.1835102436048464
  0.5624999997766783  0.5482051735318032  0.1835360677832062
  0.5000000000980267  0.6315325193828697  0.2615400320820134
  0.5624999997705156  0.5193892496194905  0.2615543728407840
  0.6249999999944473  0.6027194572400648  0.1835102433167085
  0.6874999997208492  0.5482051737027348  0.1835360679130700
  0.6250000000298125  0.6315325200068921  0.2615400321722056
  0.6874999998551233  0.5193892496914665  0.2615543726279477
  0.7499999999377461  0.6027194575169971  0.1835102428732780
  0.8125000000358974  0.5482051734222354  0.1835360677822096
  0.7499999999592010  0.6315325201863652  0.2615400325538283
  0.8125000002120016  0.5193892496082922  0.2615543727419079
  0.8750000000066409  0.6027194577550420  0.1835102430023562
  0.9375000006544030  0.5482051732305323  0.1835360672601057
  0.8750000001710634  0.6315325199102724  0.2615400324328251
  0.9375000004327466  0.5193892491852674  0.2615543729927274
 -0.0000000003376666  0.7693886185984224  0.1835105325300551
  0.0624999998282835  0.7148743338991774  0.1835365831425429
 -0.0000000003239902  0.7982021952928063  0.2615396499535546
  0.0624999999403939  0.6860553581784344  0.2615528109690493
  0.1250000000368522  0.7693886191054751  0.1835105327018236
  0.1874999999811904  0.7148743340902418  0.1835365830812676
  0.1250000000464076  0.7982021956291826  0.2615396493174591
  0.1874999996057489  0.6860553584784083  0.2615528111467579
  0.2499999999070499  0.7693886190544651  0.1835105326243296
  0.3124999999269774  0.7148743343994095  0.1835365829588194
  0.2499999998004428  0.7982021960041343  0.2615396491984927
  0.3124999999014330  0.6860553589354245  0.2615528112224003
  0.3750000000963953  0.7693886190629653  0.1835105322516325
  0.4375000001000267  0.7148743346304169  0.1835365828364109
  0.3749999999735084  0.7982021963688855  0.2615396493914068
  0.4375000001980256  0.6860553591491259  0.2615528114038162
  0.5000000002019881  0.7693886186925908  0.1835105321899781
  0.5625000000034401  0.7148743347493846  0.1835365831133530
  0.5000000000876861  0.7982021960085705  0.2615396496035308
  0.5625000001483285  0.6860553591328518  0.2615528110813079
  0.6249999998515605  0.7693886185879318  0.1835105324665920
  0.6874999998059149  0.7148743344226021  0.1835365830700066
  0.6249999998591769  0.7982021953096264  0.2615396497670032
  0.6875000000453317  0.6860553589943801  0.2615528111522285
  0.7500000001598730  0.7693886189027462  0.1835105324588338
  0.8125000000648162  0.7148743345718921  0.1835365831918386
  0.7500000003297126  0.7982021958364860  0.2615396498127571
  0.8124999998881112  0.6860553593428519  0.2615528112544698
  0.8750000000597790  0.7693886189491246  0.1835105323509795
  0.9375000002486337  0.7148743345451843  0.1835365831520108
  0.8750000000877797  0.7982021961633435  0.2615396499095335
  0.9375000001533051  0.6860553592285403  0.2615528111781321
 -0.0000000003339205  0.9360604317401499  0.1835097908212682
  0.0624999999168045  0.8815483419734199  0.1835356713367956
 -0.0000000004024831  0.9648689516479312  0.2615411861889174
  0.0624999999921329  0.8527253664636171  0.2615530594728851
  0.1250000002228402  0.9360604319907341  0.1835097905522927
  0.1875000001248971  0.8815483419426583  0.1835356713684134
  0.1250000001843997  0.9648689517803670  0.2615411862457611
  0.1875000001118478  0.8527253660703945  0.2615530590695553
  0.2500000000475315  0.9360604322519608  0.1835097909561093
  0.3124999998089522  0.8815483417807809  0.1835356710917686
  0.2500000002943598  0.9648689526369091  0.2615411857796801
  0.3125000001016280  0.8527253660270822  0.2615530591741618
  0.3749999999098567  0.9360604325724331  0.1835097908723895
  0.4375000000197558  0.8815483419640908  0.1835356711575475
  0.3749999997126462  0.9648689526682325  0.2615411858675026
  0.4375000000563866  0.8527253659793700  0.2615530592890907
  0.4999999998602721  0.9360604319042185  0.1835097911548681
  0.5624999997419623  0.8815483418991427  0.1835356712010180
  0.4999999997294329  0.9648689520432572  0.2615411857597673
  0.5624999998369121  0.8527253660806530  0.2615530594467673
  0.6250000001840209  0.9360604323727079  0.1835097911776436
  0.6875000002481908  0.8815483421118812  0.1835356711956734
  0.6250000002514641  0.9648689520567232  0.2615411856949854
  0.6875000002528633  0.8527253663517999  0.2615530597018924
  0.7500000002345754  0.9360604324083087  0.1835097911048781
  0.8125000002529877  0.8815483420718805  0.1835356712318467
  0.7500000003073178  0.9648689525007963  0.2615411856640898
  0.8125000001562480  0.8527253660367089  0.2615530596082341
  0.8749999999591653  0.9360604318304900  0.1835097911193830
  0.9374999997711901  0.8815483423039724  0.1835356714985483
  0.8749999998909965  0.9648689521656961  0.2615411857463880
  0.9374999995580251  0.8527253661783196  0.2615530592758472
 
  0.00000000E+00  0.00000000E+00  0.00000000E+00
  0.00000000E+00  0.00000000E+00  0.00000000E+00
  0.00000000E+00  0.00000000E+00  0.00000000E+00
  0.00000000E+00  0.00000000E+00  0.00000000E+00
  0.00000000E+00  0.00000000E+00  0.00000000E+00
  0.00000000E+00  0.00000000E+00  0.00000000E+00
  0.00000000E+00  0.00000000E+00  0.00000000E+00
  0.00000000E+00  0.00000000E+00  0.00000000E+00
  0.00000000E+00  0.00000000E+00  0.00000000E+00
  0.00000000E+00  0.00000000E+00  0.00000000E+00
  0.00000000E+00  0.00000000E+00  0.00000000E+00
  0.00000000E+00  0.00000000E+00  0.00000000E+00
  0.00000000E+00  0.00000000E+00  0.00000000E+00
  0.00000000E+00  0.00000000E+00  0.00000000E+00
  0.00000000E+00  0.00000000E+00  0.00000000E+00
  0.00000000E+00  0.00000000E+00  0.00000000E+00
  0.00000000E+00  0.00000000E+00  0.00000000E+00
  0.00000000E+00  0.00000000E+00  0.00000000E+00
  0.00000000E+00  0.00000000E+00  0.00000000E+00
  0.00000000E+00  0.00000000E+00  0.00000000E+00
  0.00000000E+00  0.00000000E+00  0.00000000E+00
  0.00000000E+00  0.00000000E+00  0.00000000E+00
  0.00000000E+00  0.00000000E+00  0.00000000E+00
  0.00000000E+00  0.00000000E+00  0.00000000E+00
  0.00000000E+00  0.00000000E+00  0.00000000E+00
  0.00000000E+00  0.00000000E+00  0.00000000E+00
  0.00000000E+00  0.00000000E+00  0.00000000E+00
  0.00000000E+00  0.00000000E+00  0.00000000E+00
  0.00000000E+00  0.00000000E+00  0.00000000E+00
  0.00000000E+00  0.00000000E+00  0.00000000E+00
  0.00000000E+00  0.00000000E+00  0.00000000E+00
  0.00000000E+00  0.00000000E+00  0.00000000E+00
  0.00000000E+00  0.00000000E+00  0.00000000E+00
  0.00000000E+00  0.00000000E+00  0.00000000E+00
  0.00000000E+00  0.00000000E+00  0.00000000E+00
  0.00000000E+00  0.00000000E+00  0.00000000E+00
  0.00000000E+00  0.00000000E+00  0.00000000E+00
  0.00000000E+00  0.00000000E+00  0.00000000E+00
  0.00000000E+00  0.00000000E+00  0.00000000E+00
  0.00000000E+00  0.00000000E+00  0.00000000E+00
  0.00000000E+00  0.00000000E+00  0.00000000E+00
  0.00000000E+00  0.00000000E+00  0.00000000E+00
  0.00000000E+00  0.00000000E+00  0.00000000E+00
  0.00000000E+00  0.00000000E+00  0.00000000E+00
  0.00000000E+00  0.00000000E+00  0.00000000E+00
  0.00000000E+00  0.00000000E+00  0.00000000E+00
  0.00000000E+00  0.00000000E+00  0.00000000E+00
  0.00000000E+00  0.00000000E+00  0.00000000E+00
  0.00000000E+00  0.00000000E+00  0.00000000E+00
  0.00000000E+00  0.00000000E+00  0.00000000E+00
  0.00000000E+00  0.00000000E+00  0.00000000E+00
  0.00000000E+00  0.00000000E+00  0.00000000E+00
  0.00000000E+00  0.00000000E+00  0.00000000E+00
  0.00000000E+00  0.00000000E+00  0.00000000E+00
  0.00000000E+00  0.00000000E+00  0.00000000E+00
  0.00000000E+00  0.00000000E+00  0.00000000E+00
  0.00000000E+00  0.00000000E+00  0.00000000E+00
  0.00000000E+00  0.00000000E+00  0.00000000E+00
  0.00000000E+00  0.00000000E+00  0.00000000E+00
  0.00000000E+00  0.00000000E+00  0.00000000E+00
  0.00000000E+00  0.00000000E+00  0.00000000E+00
  0.00000000E+00  0.00000000E+00  0.00000000E+00
  0.00000000E+00  0.00000000E+00  0.00000000E+00
  0.00000000E+00  0.00000000E+00  0.00000000E+00
  0.00000000E+00  0.00000000E+00  0.00000000E+00
  0.00000000E+00  0.00000000E+00  0.00000000E+00
  0.00000000E+00  0.00000000E+00  0.00000000E+00
  0.00000000E+00  0.00000000E+00  0.00000000E+00
  0.00000000E+00  0.00000000E+00  0.00000000E+00
  0.00000000E+00  0.00000000E+00  0.00000000E+00
  0.00000000E+00  0.00000000E+00  0.00000000E+00
  0.00000000E+00  0.00000000E+00  0.00000000E+00
  0.00000000E+00  0.00000000E+00  0.00000000E+00
  0.00000000E+00  0.00000000E+00  0.00000000E+00
  0.00000000E+00  0.00000000E+00  0.00000000E+00
  0.00000000E+00  0.00000000E+00  0.00000000E+00
  0.00000000E+00  0.00000000E+00  0.00000000E+00
  0.00000000E+00  0.00000000E+00  0.00000000E+00
  0.00000000E+00  0.00000000E+00  0.00000000E+00
  0.00000000E+00  0.00000000E+00  0.00000000E+00
  0.00000000E+00  0.00000000E+00  0.00000000E+00
  0.00000000E+00  0.00000000E+00  0.00000000E+00
  0.00000000E+00  0.00000000E+00  0.00000000E+00
  0.00000000E+00  0.00000000E+00  0.00000000E+00
  0.00000000E+00  0.00000000E+00  0.00000000E+00
  0.00000000E+00  0.00000000E+00  0.00000000E+00
  0.00000000E+00  0.00000000E+00  0.00000000E+00
  0.00000000E+00  0.00000000E+00  0.00000000E+00
  0.00000000E+00  0.00000000E+00  0.00000000E+00
  0.00000000E+00  0.00000000E+00  0.00000000E+00
  0.00000000E+00  0.00000000E+00  0.00000000E+00
  0.00000000E+00  0.00000000E+00  0.00000000E+00
  0.00000000E+00  0.00000000E+00  0.00000000E+00
  0.00000000E+00  0.00000000E+00  0.00000000E+00
  0.00000000E+00  0.00000000E+00  0.00000000E+00
  0.00000000E+00  0.00000000E+00  0.00000000E+00
  0.00000000E+00  0.00000000E+00  0.00000000E+00
  0.00000000E+00  0.00000000E+00  0.00000000E+00
  0.00000000E+00  0.00000000E+00  0.00000000E+00
  0.00000000E+00  0.00000000E+00  0.00000000E+00
  0.00000000E+00  0.00000000E+00  0.00000000E+00
  0.00000000E+00  0.00000000E+00  0.00000000E+00
  0.00000000E+00  0.00000000E+00  0.00000000E+00
  0.00000000E+00  0.00000000E+00  0.00000000E+00
  0.00000000E+00  0.00000000E+00  0.00000000E+00
  0.00000000E+00  0.00000000E+00  0.00000000E+00
  0.00000000E+00  0.00000000E+00  0.00000000E+00
  0.00000000E+00  0.00000000E+00  0.00000000E+00
  0.00000000E+00  0.00000000E+00  0.00000000E+00
  0.00000000E+00  0.00000000E+00  0.00000000E+00
  0.00000000E+00  0.00000000E+00  0.00000000E+00
  0.00000000E+00  0.00000000E+00  0.00000000E+00
  0.00000000E+00  0.00000000E+00  0.00000000E+00
  0.00000000E+00  0.00000000E+00  0.00000000E+00
  0.00000000E+00  0.00000000E+00  0.00000000E+00
  0.00000000E+00  0.00000000E+00  0.00000000E+00
  0.00000000E+00  0.00000000E+00  0.00000000E+00
  0.00000000E+00  0.00000000E+00  0.00000000E+00
  0.00000000E+00  0.00000000E+00  0.00000000E+00
  0.00000000E+00  0.00000000E+00  0.00000000E+00
  0.00000000E+00  0.00000000E+00  0.00000000E+00
  0.00000000E+00  0.00000000E+00  0.00000000E+00
  0.00000000E+00  0.00000000E+00  0.00000000E+00
  0.00000000E+00  0.00000000E+00  0.00000000E+00
  0.00000000E+00  0.00000000E+00  0.00000000E+00
  0.00000000E+00  0.00000000E+00  0.00000000E+00
  0.00000000E+00  0.00000000E+00  0.00000000E+00
  0.00000000E+00  0.00000000E+00  0.00000000E+00
  0.00000000E+00  0.00000000E+00  0.00000000E+00
  0.00000000E+00  0.00000000E+00  0.00000000E+00
  0.00000000E+00  0.00000000E+00  0.00000000E+00
  0.00000000E+00  0.00000000E+00  0.00000000E+00
  0.00000000E+00  0.00000000E+00  0.00000000E+00
  0.00000000E+00  0.00000000E+00  0.00000000E+00
  0.00000000E+00  0.00000000E+00  0.00000000E+00
  0.00000000E+00  0.00000000E+00  0.00000000E+00
  0.00000000E+00  0.00000000E+00  0.00000000E+00
  0.00000000E+00  0.00000000E+00  0.00000000E+00
  0.00000000E+00  0.00000000E+00  0.00000000E+00
  0.00000000E+00  0.00000000E+00  0.00000000E+00
  0.00000000E+00  0.00000000E+00  0.00000000E+00
  0.00000000E+00  0.00000000E+00  0.00000000E+00
  0.00000000E+00  0.00000000E+00  0.00000000E+00
  0.00000000E+00  0.00000000E+00  0.00000000E+00
  0.00000000E+00  0.00000000E+00  0.00000000E+00
  0.00000000E+00  0.00000000E+00  0.00000000E+00
  0.00000000E+00  0.00000000E+00  0.00000000E+00
  0.00000000E+00  0.00000000E+00  0.00000000E+00
  0.00000000E+00  0.00000000E+00  0.00000000E+00
  0.00000000E+00  0.00000000E+00  0.00000000E+00
  0.00000000E+00  0.00000000E+00  0.00000000E+00
  0.00000000E+00  0.00000000E+00  0.00000000E+00
  0.00000000E+00  0.00000000E+00  0.00000000E+00
  0.00000000E+00  0.00000000E+00  0.00000000E+00
  0.00000000E+00  0.00000000E+00  0.00000000E+00
  0.00000000E+00  0.00000000E+00  0.00000000E+00
  0.00000000E+00  0.00000000E+00  0.00000000E+00
  0.00000000E+00  0.00000000E+00  0.00000000E+00
  0.00000000E+00  0.00000000E+00  0.00000000E+00
  0.00000000E+00  0.00000000E+00  0.00000000E+00
  0.00000000E+00  0.00000000E+00  0.00000000E+00
  0.00000000E+00  0.00000000E+00  0.00000000E+00
  0.00000000E+00  0.00000000E+00  0.00000000E+00
  0.00000000E+00  0.00000000E+00  0.00000000E+00
  0.00000000E+00  0.00000000E+00  0.00000000E+00
  0.00000000E+00  0.00000000E+00  0.00000000E+00
  0.00000000E+00  0.00000000E+00  0.00000000E+00
  0.00000000E+00  0.00000000E+00  0.00000000E+00
  0.00000000E+00  0.00000000E+00  0.00000000E+00
  0.00000000E+00  0.00000000E+00  0.00000000E+00
  0.00000000E+00  0.00000000E+00  0.00000000E+00
  0.00000000E+00  0.00000000E+00  0.00000000E+00
  0.00000000E+00  0.00000000E+00  0.00000000E+00
  0.00000000E+00  0.00000000E+00  0.00000000E+00
  0.00000000E+00  0.00000000E+00  0.00000000E+00
  0.00000000E+00  0.00000000E+00  0.00000000E+00
  0.00000000E+00  0.00000000E+00  0.00000000E+00
  0.00000000E+00  0.00000000E+00  0.00000000E+00
  0.00000000E+00  0.00000000E+00  0.00000000E+00
  0.00000000E+00  0.00000000E+00  0.00000000E+00
  0.00000000E+00  0.00000000E+00  0.00000000E+00
  0.00000000E+00  0.00000000E+00  0.00000000E+00
  0.00000000E+00  0.00000000E+00  0.00000000E+00
  0.00000000E+00  0.00000000E+00  0.00000000E+00
  0.00000000E+00  0.00000000E+00  0.00000000E+00
  0.00000000E+00  0.00000000E+00  0.00000000E+00
  0.00000000E+00  0.00000000E+00  0.00000000E+00
  0.00000000E+00  0.00000000E+00  0.00000000E+00
  0.00000000E+00  0.00000000E+00  0.00000000E+00
  0.00000000E+00  0.00000000E+00  0.00000000E+00
  0.00000000E+00  0.00000000E+00  0.00000000E+00
  0.00000000E+00  0.00000000E+00  0.00000000E+00
