MoS2_opted_init                         
   1.00000000000000     
    27.5769004821999992    0.0000000000000000    0.0000000000000000
     0.0000000000000000   22.2901000977000017    0.0000000000000000
     0.0000000000000000    0.0000000000000000   28.1268005370999994
   Mo   S 
    70   140
Direct
  0.1333300000000008  0.0000000000000000  0.2333500000000015
  0.0333299999999994  0.0714299999999994  0.2333500000000015
  0.3333299999999966  0.0000000000000000  0.2333500000000015
  0.2333300000000023  0.0714299999999994  0.2333500000000015
  0.5333299999999994  0.0000000000000000  0.2333500000000015
  0.4333299999999980  0.0714299999999994  0.2333500000000015
  0.7333300000000023  0.0000000000000000  0.2333500000000015
  0.6333300000000008  0.0714299999999994  0.2333500000000015
  0.9333299999999980  0.0000000000000000  0.2333500000000015
  0.8333299999999966  0.0714299999999994  0.2333500000000015
  0.1333300000000008  0.1428599999999989  0.2333500000000015
  0.0333299999999994  0.2142800000000022  0.2333500000000015
  0.3333299999999966  0.1428599999999989  0.2333500000000015
  0.2333300000000023  0.2142800000000022  0.2333500000000015
  0.5333299999999994  0.1428599999999989  0.2333500000000015
  0.4333299999999980  0.2142800000000022  0.2333500000000015
  0.7333300000000023  0.1428599999999989  0.2333500000000015
  0.6333300000000008  0.2142800000000022  0.2333500000000015
  0.9333299999999980  0.1428599999999989  0.2333500000000015
  0.8333299999999966  0.2142800000000022  0.2333500000000015
  0.1333300000000008  0.2857199999999978  0.2333500000000015
  0.0333299999999994  0.3571400000000011  0.2333500000000015
  0.3333299999999966  0.2857199999999978  0.2333500000000015
  0.2333300000000023  0.3571400000000011  0.2333500000000015
  0.5333299999999994  0.2857199999999978  0.2333500000000015
  0.4333299999999980  0.3571400000000011  0.2333500000000015
  0.7333300000000023  0.2857199999999978  0.2333500000000015
  0.6333300000000008  0.3571400000000011  0.2333500000000015
  0.9333299999999980  0.2857199999999978  0.2333500000000015
  0.8333299999999966  0.3571400000000011  0.2333500000000015
  0.1333300000000008  0.4285700000000006  0.2333500000000015
  0.0333299999999994  0.5000000000000000  0.2333500000000015
  0.3333299999999966  0.4285700000000006  0.2333500000000015
  0.2333300000000023  0.5000000000000000  0.2333500000000015
  0.5333299999999994  0.4285700000000006  0.2333500000000015
  0.4333299999999980  0.5000000000000000  0.2333500000000015
  0.7333300000000023  0.4285700000000006  0.2333500000000015
  0.6333300000000008  0.5000000000000000  0.2333500000000015
  0.9333299999999980  0.4285700000000006  0.2333500000000015
  0.8333299999999966  0.5000000000000000  0.2333500000000015
  0.1333300000000008  0.5714299999999994  0.2333500000000015
  0.0333299999999994  0.6428599999999989  0.2333500000000015
  0.3333299999999966  0.5714299999999994  0.2333500000000015
  0.2333300000000023  0.6428599999999989  0.2333500000000015
  0.5333299999999994  0.5714299999999994  0.2333500000000015
  0.4333299999999980  0.6428599999999989  0.2333500000000015
  0.7333300000000023  0.5714299999999994  0.2333500000000015
  0.6333300000000008  0.6428599999999989  0.2333500000000015
  0.9333299999999980  0.5714299999999994  0.2333500000000015
  0.8333299999999966  0.6428599999999989  0.2333500000000015
  0.1333300000000008  0.7142800000000022  0.2333500000000015
  0.0333299999999994  0.7857199999999978  0.2333500000000015
  0.3333299999999966  0.7142800000000022  0.2333500000000015
  0.2333300000000023  0.7857199999999978  0.2333500000000015
  0.5333299999999994  0.7142800000000022  0.2333500000000015
  0.4333299999999980  0.7857199999999978  0.2333500000000015
  0.7333300000000023  0.7142800000000022  0.2333500000000015
  0.6333300000000008  0.7857199999999978  0.2333500000000015
  0.9333299999999980  0.7142800000000022  0.2333500000000015
  0.8333299999999966  0.7857199999999978  0.2333500000000015
  0.1333300000000008  0.8571400000000011  0.2333500000000015
  0.0333299999999994  0.9285700000000006  0.2333500000000015
  0.3333299999999966  0.8571400000000011  0.2333500000000015
  0.2333300000000023  0.9285700000000006  0.2333500000000015
  0.5333299999999994  0.8571400000000011  0.2333500000000015
  0.4333299999999980  0.9285700000000006  0.2333500000000015
  0.7333300000000023  0.8571400000000011  0.2333500000000015
  0.6333300000000008  0.9285700000000006  0.2333500000000015
  0.9333299999999980  0.8571400000000011  0.2333500000000015
  0.8333299999999966  0.9285700000000006  0.2333500000000015
  0.0000000000000000  0.0000000000000000  0.1777799999999985
  0.1000000000000014  0.0714299999999994  0.1777799999999985
  0.0000000000000000  0.0000000000000000  0.2889300000000006
  0.1000000000000014  0.0714299999999994  0.2889300000000006
  0.2000000000000028  0.0000000000000000  0.1777799999999985
  0.2999999999999972  0.0714299999999994  0.1777799999999985
  0.2000000000000028  0.0000000000000000  0.2889300000000006
  0.2999999999999972  0.0714299999999994  0.2889300000000006
  0.3999999999999986  0.0000000000000000  0.1777799999999985
  0.5000000000000000  0.0714299999999994  0.1777799999999985
  0.3999999999999986  0.0000000000000000  0.2889300000000006
  0.5000000000000000  0.0714299999999994  0.2889300000000006
  0.6000000000000014  0.0000000000000000  0.1777799999999985
  0.7000000000000028  0.0714299999999994  0.1777799999999985
  0.6000000000000014  0.0000000000000000  0.2889300000000006
  0.7000000000000028  0.0714299999999994  0.2889300000000006
  0.7999999999999972  0.0000000000000000  0.1777799999999985
  0.8999999999999986  0.0714299999999994  0.1777799999999985
  0.7999999999999972  0.0000000000000000  0.2889300000000006
  0.8999999999999986  0.0714299999999994  0.2889300000000006
  0.0000000000000000  0.1428599999999989  0.1777799999999985
  0.1000000000000014  0.2142899999999983  0.1777799999999985
  0.0000000000000000  0.1428599999999989  0.2889300000000006
  0.1000000000000014  0.2142899999999983  0.2889399999999966
  0.2000000000000028  0.1428599999999989  0.1777799999999985
  0.2999999999999972  0.2142899999999983  0.1777799999999985
  0.2000000000000028  0.1428599999999989  0.2889300000000006
  0.2999999999999972  0.2142899999999983  0.2889399999999966
  0.3999999999999986  0.1428599999999989  0.1777799999999985
  0.5000000000000000  0.2142899999999983  0.1777799999999985
  0.3999999999999986  0.1428599999999989  0.2889300000000006
  0.5000000000000000  0.2142899999999983  0.2889399999999966
  0.6000000000000014  0.1428599999999989  0.1777799999999985
  0.7000000000000028  0.2142899999999983  0.1777799999999985
  0.6000000000000014  0.1428599999999989  0.2889300000000006
  0.7000000000000028  0.2142899999999983  0.2889399999999966
  0.7999999999999972  0.1428599999999989  0.1777799999999985
  0.8999999999999986  0.2142899999999983  0.1777799999999985
  0.7999999999999972  0.1428599999999989  0.2889300000000006
  0.8999999999999986  0.2142899999999983  0.2889399999999966
  0.0000000000000000  0.2857100000000017  0.1777799999999985
  0.1000000000000014  0.3571400000000011  0.1777799999999985
  0.0000000000000000  0.2857100000000017  0.2889399999999966
  0.1000000000000014  0.3571400000000011  0.2889300000000006
  0.2000000000000028  0.2857100000000017  0.1777799999999985
  0.2999999999999972  0.3571400000000011  0.1777799999999985
  0.2000000000000028  0.2857100000000017  0.2889399999999966
  0.2999999999999972  0.3571400000000011  0.2889300000000006
  0.3999999999999986  0.2857100000000017  0.1777799999999985
  0.5000000000000000  0.3571400000000011  0.1777799999999985
  0.3999999999999986  0.2857100000000017  0.2889399999999966
  0.5000000000000000  0.3571400000000011  0.2889300000000006
  0.6000000000000014  0.2857100000000017  0.1777799999999985
  0.7000000000000028  0.3571400000000011  0.1777799999999985
  0.6000000000000014  0.2857100000000017  0.2889399999999966
  0.7000000000000028  0.3571400000000011  0.2889300000000006
  0.7999999999999972  0.2857100000000017  0.1777799999999985
  0.8999999999999986  0.3571400000000011  0.1777799999999985
  0.7999999999999972  0.2857100000000017  0.2889399999999966
  0.8999999999999986  0.3571400000000011  0.2889300000000006
  0.0000000000000000  0.4285700000000006  0.1777799999999985
  0.1000000000000014  0.5000000000000000  0.1777799999999985
  0.0000000000000000  0.4285700000000006  0.2889300000000006
  0.1000000000000014  0.5000000000000000  0.2889300000000006
  0.2000000000000028  0.4285700000000006  0.1777799999999985
  0.2999999999999972  0.5000000000000000  0.1777799999999985
  0.2000000000000028  0.4285700000000006  0.2889300000000006
  0.2999999999999972  0.5000000000000000  0.2889300000000006
  0.3999999999999986  0.4285700000000006  0.1777799999999985
  0.5000000000000000  0.5000000000000000  0.1777799999999985
  0.3999999999999986  0.4285700000000006  0.2889300000000006
  0.5000000000000000  0.5000000000000000  0.2889300000000006
  0.6000000000000014  0.4285700000000006  0.1777799999999985
  0.7000000000000028  0.5000000000000000  0.1777799999999985
  0.6000000000000014  0.4285700000000006  0.2889300000000006
  0.7000000000000028  0.5000000000000000  0.2889300000000006
  0.7999999999999972  0.4285700000000006  0.1777799999999985
  0.8999999999999986  0.5000000000000000  0.1777799999999985
  0.7999999999999972  0.4285700000000006  0.2889300000000006
  0.8999999999999986  0.5000000000000000  0.2889300000000006
  0.0000000000000000  0.5714299999999994  0.1777799999999985
  0.1000000000000014  0.6428599999999989  0.1777799999999985
  0.0000000000000000  0.5714299999999994  0.2889300000000006
  0.1000000000000014  0.6428599999999989  0.2889300000000006
  0.2000000000000028  0.5714299999999994  0.1777799999999985
  0.2999999999999972  0.6428599999999989  0.1777799999999985
  0.2000000000000028  0.5714299999999994  0.2889300000000006
  0.2999999999999972  0.6428599999999989  0.2889300000000006
  0.3999999999999986  0.5714299999999994  0.1777799999999985
  0.5000000000000000  0.6428599999999989  0.1777799999999985
  0.3999999999999986  0.5714299999999994  0.2889300000000006
  0.5000000000000000  0.6428599999999989  0.2889300000000006
  0.6000000000000014  0.5714299999999994  0.1777799999999985
  0.7000000000000028  0.6428599999999989  0.1777799999999985
  0.6000000000000014  0.5714299999999994  0.2889300000000006
  0.7000000000000028  0.6428599999999989  0.2889300000000006
  0.7999999999999972  0.5714299999999994  0.1777799999999985
  0.8999999999999986  0.6428599999999989  0.1777799999999985
  0.7999999999999972  0.5714299999999994  0.2889300000000006
  0.8999999999999986  0.6428599999999989  0.2889300000000006
  0.0000000000000000  0.7142899999999983  0.1777799999999985
  0.1000000000000014  0.7857100000000017  0.1777799999999985
  0.0000000000000000  0.7142899999999983  0.2889399999999966
  0.1000000000000014  0.7857100000000017  0.2889399999999966
  0.2000000000000028  0.7142899999999983  0.1777799999999985
  0.2999999999999972  0.7857100000000017  0.1777799999999985
  0.2000000000000028  0.7142899999999983  0.2889399999999966
  0.2999999999999972  0.7857100000000017  0.2889399999999966
  0.3999999999999986  0.7142899999999983  0.1777799999999985
  0.5000000000000000  0.7857100000000017  0.1777799999999985
  0.3999999999999986  0.7142899999999983  0.2889399999999966
  0.5000000000000000  0.7857100000000017  0.2889399999999966
  0.6000000000000014  0.7142899999999983  0.1777799999999985
  0.7000000000000028  0.7857100000000017  0.1777799999999985
  0.6000000000000014  0.7142899999999983  0.2889399999999966
  0.7000000000000028  0.7857100000000017  0.2889399999999966
  0.7999999999999972  0.7142899999999983  0.1777799999999985
  0.8999999999999986  0.7857100000000017  0.1777799999999985
  0.7999999999999972  0.7142899999999983  0.2889399999999966
  0.8999999999999986  0.7857100000000017  0.2889399999999966
  0.0000000000000000  0.8571400000000011  0.1777799999999985
  0.1000000000000014  0.9285700000000006  0.1777799999999985
  0.0000000000000000  0.8571400000000011  0.2889300000000006
  0.1000000000000014  0.9285700000000006  0.2889300000000006
  0.2000000000000028  0.8571400000000011  0.1777799999999985
  0.2999999999999972  0.9285700000000006  0.1777799999999985
  0.2000000000000028  0.8571400000000011  0.2889300000000006
  0.2999999999999972  0.9285700000000006  0.2889300000000006
  0.3999999999999986  0.8571400000000011  0.1777799999999985
  0.5000000000000000  0.9285700000000006  0.1777799999999985
  0.3999999999999986  0.8571400000000011  0.2889300000000006
  0.5000000000000000  0.9285700000000006  0.2889300000000006
  0.6000000000000014  0.8571400000000011  0.1777799999999985
  0.7000000000000028  0.9285700000000006  0.1777799999999985
  0.6000000000000014  0.8571400000000011  0.2889300000000006
  0.7000000000000028  0.9285700000000006  0.2889300000000006
  0.7999999999999972  0.8571400000000011  0.1777799999999985
  0.8999999999999986  0.9285700000000006  0.1777799999999985
  0.7999999999999972  0.8571400000000011  0.2889300000000006
  0.8999999999999986  0.9285700000000006  0.2889300000000006
 
  0.00000000E+00  0.00000000E+00  0.00000000E+00
  0.00000000E+00  0.00000000E+00  0.00000000E+00
  0.00000000E+00  0.00000000E+00  0.00000000E+00
  0.00000000E+00  0.00000000E+00  0.00000000E+00
  0.00000000E+00  0.00000000E+00  0.00000000E+00
  0.00000000E+00  0.00000000E+00  0.00000000E+00
  0.00000000E+00  0.00000000E+00  0.00000000E+00
  0.00000000E+00  0.00000000E+00  0.00000000E+00
  0.00000000E+00  0.00000000E+00  0.00000000E+00
  0.00000000E+00  0.00000000E+00  0.00000000E+00
  0.00000000E+00  0.00000000E+00  0.00000000E+00
  0.00000000E+00  0.00000000E+00  0.00000000E+00
  0.00000000E+00  0.00000000E+00  0.00000000E+00
  0.00000000E+00  0.00000000E+00  0.00000000E+00
  0.00000000E+00  0.00000000E+00  0.00000000E+00
  0.00000000E+00  0.00000000E+00  0.00000000E+00
  0.00000000E+00  0.00000000E+00  0.00000000E+00
  0.00000000E+00  0.00000000E+00  0.00000000E+00
  0.00000000E+00  0.00000000E+00  0.00000000E+00
  0.00000000E+00  0.00000000E+00  0.00000000E+00
  0.00000000E+00  0.00000000E+00  0.00000000E+00
  0.00000000E+00  0.00000000E+00  0.00000000E+00
  0.00000000E+00  0.00000000E+00  0.00000000E+00
  0.00000000E+00  0.00000000E+00  0.00000000E+00
  0.00000000E+00  0.00000000E+00  0.00000000E+00
  0.00000000E+00  0.00000000E+00  0.00000000E+00
  0.00000000E+00  0.00000000E+00  0.00000000E+00
  0.00000000E+00  0.00000000E+00  0.00000000E+00
  0.00000000E+00  0.00000000E+00  0.00000000E+00
  0.00000000E+00  0.00000000E+00  0.00000000E+00
  0.00000000E+00  0.00000000E+00  0.00000000E+00
  0.00000000E+00  0.00000000E+00  0.00000000E+00
  0.00000000E+00  0.00000000E+00  0.00000000E+00
  0.00000000E+00  0.00000000E+00  0.00000000E+00
  0.00000000E+00  0.00000000E+00  0.00000000E+00
  0.00000000E+00  0.00000000E+00  0.00000000E+00
  0.00000000E+00  0.00000000E+00  0.00000000E+00
  0.00000000E+00  0.00000000E+00  0.00000000E+00
  0.00000000E+00  0.00000000E+00  0.00000000E+00
  0.00000000E+00  0.00000000E+00  0.00000000E+00
  0.00000000E+00  0.00000000E+00  0.00000000E+00
  0.00000000E+00  0.00000000E+00  0.00000000E+00
  0.00000000E+00  0.00000000E+00  0.00000000E+00
  0.00000000E+00  0.00000000E+00  0.00000000E+00
  0.00000000E+00  0.00000000E+00  0.00000000E+00
  0.00000000E+00  0.00000000E+00  0.00000000E+00
  0.00000000E+00  0.00000000E+00  0.00000000E+00
  0.00000000E+00  0.00000000E+00  0.00000000E+00
  0.00000000E+00  0.00000000E+00  0.00000000E+00
  0.00000000E+00  0.00000000E+00  0.00000000E+00
  0.00000000E+00  0.00000000E+00  0.00000000E+00
  0.00000000E+00  0.00000000E+00  0.00000000E+00
  0.00000000E+00  0.00000000E+00  0.00000000E+00
  0.00000000E+00  0.00000000E+00  0.00000000E+00
  0.00000000E+00  0.00000000E+00  0.00000000E+00
  0.00000000E+00  0.00000000E+00  0.00000000E+00
  0.00000000E+00  0.00000000E+00  0.00000000E+00
  0.00000000E+00  0.00000000E+00  0.00000000E+00
  0.00000000E+00  0.00000000E+00  0.00000000E+00
  0.00000000E+00  0.00000000E+00  0.00000000E+00
  0.00000000E+00  0.00000000E+00  0.00000000E+00
  0.00000000E+00  0.00000000E+00  0.00000000E+00
  0.00000000E+00  0.00000000E+00  0.00000000E+00
  0.00000000E+00  0.00000000E+00  0.00000000E+00
  0.00000000E+00  0.00000000E+00  0.00000000E+00
  0.00000000E+00  0.00000000E+00  0.00000000E+00
  0.00000000E+00  0.00000000E+00  0.00000000E+00
  0.00000000E+00  0.00000000E+00  0.00000000E+00
  0.00000000E+00  0.00000000E+00  0.00000000E+00
  0.00000000E+00  0.00000000E+00  0.00000000E+00
  0.00000000E+00  0.00000000E+00  0.00000000E+00
  0.00000000E+00  0.00000000E+00  0.00000000E+00
  0.00000000E+00  0.00000000E+00  0.00000000E+00
  0.00000000E+00  0.00000000E+00  0.00000000E+00
  0.00000000E+00  0.00000000E+00  0.00000000E+00
  0.00000000E+00  0.00000000E+00  0.00000000E+00
  0.00000000E+00  0.00000000E+00  0.00000000E+00
  0.00000000E+00  0.00000000E+00  0.00000000E+00
  0.00000000E+00  0.00000000E+00  0.00000000E+00
  0.00000000E+00  0.00000000E+00  0.00000000E+00
  0.00000000E+00  0.00000000E+00  0.00000000E+00
  0.00000000E+00  0.00000000E+00  0.00000000E+00
  0.00000000E+00  0.00000000E+00  0.00000000E+00
  0.00000000E+00  0.00000000E+00  0.00000000E+00
  0.00000000E+00  0.00000000E+00  0.00000000E+00
  0.00000000E+00  0.00000000E+00  0.00000000E+00
  0.00000000E+00  0.00000000E+00  0.00000000E+00
  0.00000000E+00  0.00000000E+00  0.00000000E+00
  0.00000000E+00  0.00000000E+00  0.00000000E+00
  0.00000000E+00  0.00000000E+00  0.00000000E+00
  0.00000000E+00  0.00000000E+00  0.00000000E+00
  0.00000000E+00  0.00000000E+00  0.00000000E+00
  0.00000000E+00  0.00000000E+00  0.00000000E+00
  0.00000000E+00  0.00000000E+00  0.00000000E+00
  0.00000000E+00  0.00000000E+00  0.00000000E+00
  0.00000000E+00  0.00000000E+00  0.00000000E+00
  0.00000000E+00  0.00000000E+00  0.00000000E+00
  0.00000000E+00  0.00000000E+00  0.00000000E+00
  0.00000000E+00  0.00000000E+00  0.00000000E+00
  0.00000000E+00  0.00000000E+00  0.00000000E+00
  0.00000000E+00  0.00000000E+00  0.00000000E+00
  0.00000000E+00  0.00000000E+00  0.00000000E+00
  0.00000000E+00  0.00000000E+00  0.00000000E+00
  0.00000000E+00  0.00000000E+00  0.00000000E+00
  0.00000000E+00  0.00000000E+00  0.00000000E+00
  0.00000000E+00  0.00000000E+00  0.00000000E+00
  0.00000000E+00  0.00000000E+00  0.00000000E+00
  0.00000000E+00  0.00000000E+00  0.00000000E+00
  0.00000000E+00  0.00000000E+00  0.00000000E+00
  0.00000000E+00  0.00000000E+00  0.00000000E+00
  0.00000000E+00  0.00000000E+00  0.00000000E+00
  0.00000000E+00  0.00000000E+00  0.00000000E+00
  0.00000000E+00  0.00000000E+00  0.00000000E+00
  0.00000000E+00  0.00000000E+00  0.00000000E+00
  0.00000000E+00  0.00000000E+00  0.00000000E+00
  0.00000000E+00  0.00000000E+00  0.00000000E+00
  0.00000000E+00  0.00000000E+00  0.00000000E+00
  0.00000000E+00  0.00000000E+00  0.00000000E+00
  0.00000000E+00  0.00000000E+00  0.00000000E+00
  0.00000000E+00  0.00000000E+00  0.00000000E+00
  0.00000000E+00  0.00000000E+00  0.00000000E+00
  0.00000000E+00  0.00000000E+00  0.00000000E+00
  0.00000000E+00  0.00000000E+00  0.00000000E+00
  0.00000000E+00  0.00000000E+00  0.00000000E+00
  0.00000000E+00  0.00000000E+00  0.00000000E+00
  0.00000000E+00  0.00000000E+00  0.00000000E+00
  0.00000000E+00  0.00000000E+00  0.00000000E+00
  0.00000000E+00  0.00000000E+00  0.00000000E+00
  0.00000000E+00  0.00000000E+00  0.00000000E+00
  0.00000000E+00  0.00000000E+00  0.00000000E+00
  0.00000000E+00  0.00000000E+00  0.00000000E+00
  0.00000000E+00  0.00000000E+00  0.00000000E+00
  0.00000000E+00  0.00000000E+00  0.00000000E+00
  0.00000000E+00  0.00000000E+00  0.00000000E+00
  0.00000000E+00  0.00000000E+00  0.00000000E+00
  0.00000000E+00  0.00000000E+00  0.00000000E+00
  0.00000000E+00  0.00000000E+00  0.00000000E+00
  0.00000000E+00  0.00000000E+00  0.00000000E+00
  0.00000000E+00  0.00000000E+00  0.00000000E+00
  0.00000000E+00  0.00000000E+00  0.00000000E+00
  0.00000000E+00  0.00000000E+00  0.00000000E+00
  0.00000000E+00  0.00000000E+00  0.00000000E+00
  0.00000000E+00  0.00000000E+00  0.00000000E+00
  0.00000000E+00  0.00000000E+00  0.00000000E+00
  0.00000000E+00  0.00000000E+00  0.00000000E+00
  0.00000000E+00  0.00000000E+00  0.00000000E+00
  0.00000000E+00  0.00000000E+00  0.00000000E+00
  0.00000000E+00  0.00000000E+00  0.00000000E+00
  0.00000000E+00  0.00000000E+00  0.00000000E+00
  0.00000000E+00  0.00000000E+00  0.00000000E+00
  0.00000000E+00  0.00000000E+00  0.00000000E+00
  0.00000000E+00  0.00000000E+00  0.00000000E+00
  0.00000000E+00  0.00000000E+00  0.00000000E+00
  0.00000000E+00  0.00000000E+00  0.00000000E+00
  0.00000000E+00  0.00000000E+00  0.00000000E+00
  0.00000000E+00  0.00000000E+00  0.00000000E+00
  0.00000000E+00  0.00000000E+00  0.00000000E+00
  0.00000000E+00  0.00000000E+00  0.00000000E+00
  0.00000000E+00  0.00000000E+00  0.00000000E+00
  0.00000000E+00  0.00000000E+00  0.00000000E+00
  0.00000000E+00  0.00000000E+00  0.00000000E+00
  0.00000000E+00  0.00000000E+00  0.00000000E+00
  0.00000000E+00  0.00000000E+00  0.00000000E+00
  0.00000000E+00  0.00000000E+00  0.00000000E+00
  0.00000000E+00  0.00000000E+00  0.00000000E+00
  0.00000000E+00  0.00000000E+00  0.00000000E+00
  0.00000000E+00  0.00000000E+00  0.00000000E+00
  0.00000000E+00  0.00000000E+00  0.00000000E+00
  0.00000000E+00  0.00000000E+00  0.00000000E+00
  0.00000000E+00  0.00000000E+00  0.00000000E+00
  0.00000000E+00  0.00000000E+00  0.00000000E+00
  0.00000000E+00  0.00000000E+00  0.00000000E+00
  0.00000000E+00  0.00000000E+00  0.00000000E+00
  0.00000000E+00  0.00000000E+00  0.00000000E+00
  0.00000000E+00  0.00000000E+00  0.00000000E+00
  0.00000000E+00  0.00000000E+00  0.00000000E+00
  0.00000000E+00  0.00000000E+00  0.00000000E+00
  0.00000000E+00  0.00000000E+00  0.00000000E+00
  0.00000000E+00  0.00000000E+00  0.00000000E+00
  0.00000000E+00  0.00000000E+00  0.00000000E+00
  0.00000000E+00  0.00000000E+00  0.00000000E+00
  0.00000000E+00  0.00000000E+00  0.00000000E+00
  0.00000000E+00  0.00000000E+00  0.00000000E+00
  0.00000000E+00  0.00000000E+00  0.00000000E+00
  0.00000000E+00  0.00000000E+00  0.00000000E+00
  0.00000000E+00  0.00000000E+00  0.00000000E+00
  0.00000000E+00  0.00000000E+00  0.00000000E+00
  0.00000000E+00  0.00000000E+00  0.00000000E+00
  0.00000000E+00  0.00000000E+00  0.00000000E+00
  0.00000000E+00  0.00000000E+00  0.00000000E+00
  0.00000000E+00  0.00000000E+00  0.00000000E+00
  0.00000000E+00  0.00000000E+00  0.00000000E+00
  0.00000000E+00  0.00000000E+00  0.00000000E+00
  0.00000000E+00  0.00000000E+00  0.00000000E+00
  0.00000000E+00  0.00000000E+00  0.00000000E+00
  0.00000000E+00  0.00000000E+00  0.00000000E+00
  0.00000000E+00  0.00000000E+00  0.00000000E+00
  0.00000000E+00  0.00000000E+00  0.00000000E+00
  0.00000000E+00  0.00000000E+00  0.00000000E+00
  0.00000000E+00  0.00000000E+00  0.00000000E+00
  0.00000000E+00  0.00000000E+00  0.00000000E+00
  0.00000000E+00  0.00000000E+00  0.00000000E+00
  0.00000000E+00  0.00000000E+00  0.00000000E+00
  0.00000000E+00  0.00000000E+00  0.00000000E+00
  0.00000000E+00  0.00000000E+00  0.00000000E+00
  0.00000000E+00  0.00000000E+00  0.00000000E+00
  0.00000000E+00  0.00000000E+00  0.00000000E+00
  0.00000000E+00  0.00000000E+00  0.00000000E+00
  0.00000000E+00  0.00000000E+00  0.00000000E+00
  0.00000000E+00  0.00000000E+00  0.00000000E+00
